*SPEF "ieee 1481-1999"
*DESIGN "axi2uart_bridge_top"
*DATE "06:20:54 Saturday June 20, 2026"
*VENDOR "The OpenROAD Project"
*PROGRAM "OpenROAD"
*VERSION "d423155d69de7f683a23f6916ead418a615ad4ad"
*DESIGN_FLOW "NAME_SCOPE LOCAL" "PIN_CAP NONE"
*DIVIDER /
*DELIMITER :
*BUS_DELIMITER []
*T_UNIT 1 NS
*C_UNIT 1 PF
*R_UNIT 1 OHM
*L_UNIT 1 HENRY

*NAME_MAP
*1 s_axi_aclk
*2 s_axi_aresetn
*3 s_axi_awaddr[0]
*4 s_axi_awaddr[1]
*5 s_axi_awaddr[2]
*6 s_axi_awaddr[3]
*7 s_axi_awready
*8 s_axi_awvalid
*9 s_axi_bready
*10 s_axi_bresp[0]
*11 s_axi_bvalid
*12 s_axi_wdata[0]
*13 s_axi_wdata[10]
*14 s_axi_wdata[11]
*15 s_axi_wdata[12]
*16 s_axi_wdata[13]
*17 s_axi_wdata[14]
*18 s_axi_wdata[15]
*19 s_axi_wdata[16]
*20 s_axi_wdata[17]
*21 s_axi_wdata[18]
*22 s_axi_wdata[19]
*23 s_axi_wdata[1]
*24 s_axi_wdata[20]
*25 s_axi_wdata[21]
*26 s_axi_wdata[22]
*27 s_axi_wdata[23]
*28 s_axi_wdata[24]
*29 s_axi_wdata[25]
*30 s_axi_wdata[26]
*31 s_axi_wdata[27]
*32 s_axi_wdata[28]
*33 s_axi_wdata[29]
*34 s_axi_wdata[2]
*35 s_axi_wdata[30]
*36 s_axi_wdata[31]
*37 s_axi_wdata[3]
*38 s_axi_wdata[4]
*39 s_axi_wdata[5]
*40 s_axi_wdata[6]
*41 s_axi_wdata[7]
*42 s_axi_wdata[8]
*43 s_axi_wdata[9]
*44 s_axi_wstrb[0]
*45 s_axi_wstrb[1]
*46 s_axi_wstrb[2]
*47 s_axi_wstrb[3]
*48 s_axi_wvalid
*49 uart_clk
*50 uart_rst_n
*51 uart_tx_out
*54 _00_
*55 _01_
*56 _02_
*57 _03_
*58 _04_
*59 _05_
*60 _06_
*61 _07_
*62 _08_
*63 _09_
*64 _10_
*65 _11_
*66 _12_
*67 _13_
*68 clknet_0_s_axi_aclk
*69 clknet_0_uart_clk
*70 clknet_3_0__leaf_uart_clk
*71 clknet_3_1__leaf_uart_clk
*72 clknet_3_2__leaf_uart_clk
*73 clknet_3_3__leaf_uart_clk
*74 clknet_3_4__leaf_uart_clk
*75 clknet_3_5__leaf_uart_clk
*76 clknet_3_6__leaf_uart_clk
*77 clknet_3_7__leaf_uart_clk
*78 clknet_4_0_0_s_axi_aclk
*79 clknet_4_10_0_s_axi_aclk
*80 clknet_4_11_0_s_axi_aclk
*81 clknet_4_12_0_s_axi_aclk
*82 clknet_4_13_0_s_axi_aclk
*83 clknet_4_14_0_s_axi_aclk
*84 clknet_4_15_0_s_axi_aclk
*85 clknet_4_1_0_s_axi_aclk
*86 clknet_4_2_0_s_axi_aclk
*87 clknet_4_3_0_s_axi_aclk
*88 clknet_4_4_0_s_axi_aclk
*89 clknet_4_5_0_s_axi_aclk
*90 clknet_4_6_0_s_axi_aclk
*91 clknet_4_7_0_s_axi_aclk
*92 clknet_4_8_0_s_axi_aclk
*93 clknet_4_9_0_s_axi_aclk
*94 fifo_rdata[0]
*95 fifo_rdata[1]
*96 fifo_rdata[2]
*97 fifo_rdata[3]
*98 fifo_rdata[4]
*99 fifo_rdata[5]
*100 fifo_rdata[6]
*101 fifo_rdata[7]
*102 fifo_rempty
*103 fifo_rinc
*104 fifo_wdata[0]
*105 fifo_wdata[1]
*106 fifo_wdata[2]
*107 fifo_wdata[3]
*108 fifo_wdata[4]
*109 fifo_wdata[5]
*110 fifo_wdata[6]
*111 fifo_wdata[7]
*112 fifo_wfull
*113 fifo_winc
*114 net1
*115 pop_state[0]
*116 pop_state[3]
*117 s_axi_bresp[1]
*118 s_axi_wready
*119 tx_data_reg[0]
*120 tx_data_reg[1]
*121 tx_data_reg[2]
*122 tx_data_reg[3]
*123 tx_data_reg[4]
*124 tx_data_reg[5]
*125 tx_data_reg[6]
*126 tx_data_reg[7]
*127 tx_start_reg
*128 u_async_fifo/_0_
*129 u_async_fifo/fifomem/_000_
*130 u_async_fifo/fifomem/_001_
*131 u_async_fifo/fifomem/_002_
*132 u_async_fifo/fifomem/_003_
*133 u_async_fifo/fifomem/_004_
*134 u_async_fifo/fifomem/_005_
*135 u_async_fifo/fifomem/_006_
*136 u_async_fifo/fifomem/_007_
*137 u_async_fifo/fifomem/_008_
*138 u_async_fifo/fifomem/_009_
*139 u_async_fifo/fifomem/_010_
*140 u_async_fifo/fifomem/_011_
*141 u_async_fifo/fifomem/_012_
*142 u_async_fifo/fifomem/_013_
*143 u_async_fifo/fifomem/_014_
*144 u_async_fifo/fifomem/_015_
*145 u_async_fifo/fifomem/_016_
*146 u_async_fifo/fifomem/_017_
*147 u_async_fifo/fifomem/_018_
*148 u_async_fifo/fifomem/_019_
*149 u_async_fifo/fifomem/_020_
*150 u_async_fifo/fifomem/_021_
*151 u_async_fifo/fifomem/_022_
*152 u_async_fifo/fifomem/_023_
*153 u_async_fifo/fifomem/_024_
*154 u_async_fifo/fifomem/_025_
*155 u_async_fifo/fifomem/_026_
*156 u_async_fifo/fifomem/_027_
*157 u_async_fifo/fifomem/_028_
*158 u_async_fifo/fifomem/_029_
*159 u_async_fifo/fifomem/_030_
*160 u_async_fifo/fifomem/_031_
*161 u_async_fifo/fifomem/_032_
*162 u_async_fifo/fifomem/_033_
*163 u_async_fifo/fifomem/_034_
*164 u_async_fifo/fifomem/_035_
*165 u_async_fifo/fifomem/_036_
*166 u_async_fifo/fifomem/_037_
*167 u_async_fifo/fifomem/_038_
*168 u_async_fifo/fifomem/_039_
*169 u_async_fifo/fifomem/_040_
*170 u_async_fifo/fifomem/_041_
*171 u_async_fifo/fifomem/_042_
*172 u_async_fifo/fifomem/_043_
*173 u_async_fifo/fifomem/_044_
*174 u_async_fifo/fifomem/_045_
*175 u_async_fifo/fifomem/_046_
*176 u_async_fifo/fifomem/_047_
*177 u_async_fifo/fifomem/_048_
*178 u_async_fifo/fifomem/_049_
*179 u_async_fifo/fifomem/_050_
*180 u_async_fifo/fifomem/_051_
*181 u_async_fifo/fifomem/_052_
*182 u_async_fifo/fifomem/_053_
*183 u_async_fifo/fifomem/_054_
*184 u_async_fifo/fifomem/_055_
*185 u_async_fifo/fifomem/_056_
*186 u_async_fifo/fifomem/_057_
*187 u_async_fifo/fifomem/_058_
*188 u_async_fifo/fifomem/_059_
*189 u_async_fifo/fifomem/_060_
*190 u_async_fifo/fifomem/_061_
*191 u_async_fifo/fifomem/_062_
*192 u_async_fifo/fifomem/_063_
*193 u_async_fifo/fifomem/_064_
*194 u_async_fifo/fifomem/_065_
*195 u_async_fifo/fifomem/_066_
*196 u_async_fifo/fifomem/_067_
*197 u_async_fifo/fifomem/_068_
*198 u_async_fifo/fifomem/_069_
*199 u_async_fifo/fifomem/_070_
*200 u_async_fifo/fifomem/_071_
*201 u_async_fifo/fifomem/_072_
*202 u_async_fifo/fifomem/_073_
*203 u_async_fifo/fifomem/_074_
*204 u_async_fifo/fifomem/_075_
*205 u_async_fifo/fifomem/_076_
*206 u_async_fifo/fifomem/_077_
*207 u_async_fifo/fifomem/_078_
*208 u_async_fifo/fifomem/_079_
*209 u_async_fifo/fifomem/_080_
*210 u_async_fifo/fifomem/_081_
*211 u_async_fifo/fifomem/_082_
*212 u_async_fifo/fifomem/_083_
*213 u_async_fifo/fifomem/_084_
*214 u_async_fifo/fifomem/_085_
*215 u_async_fifo/fifomem/_086_
*216 u_async_fifo/fifomem/_087_
*217 u_async_fifo/fifomem/_088_
*218 u_async_fifo/fifomem/_089_
*219 u_async_fifo/fifomem/_090_
*220 u_async_fifo/fifomem/_091_
*221 u_async_fifo/fifomem/_092_
*222 u_async_fifo/fifomem/_093_
*223 u_async_fifo/fifomem/_094_
*224 u_async_fifo/fifomem/_095_
*225 u_async_fifo/fifomem/_096_
*226 u_async_fifo/fifomem/_097_
*227 u_async_fifo/fifomem/_098_
*228 u_async_fifo/fifomem/_099_
*229 u_async_fifo/fifomem/_100_
*230 u_async_fifo/fifomem/_101_
*231 u_async_fifo/fifomem/_102_
*232 u_async_fifo/fifomem/_103_
*233 u_async_fifo/fifomem/_104_
*234 u_async_fifo/fifomem/_105_
*235 u_async_fifo/fifomem/_106_
*236 u_async_fifo/fifomem/_107_
*237 u_async_fifo/fifomem/_108_
*238 u_async_fifo/fifomem/_109_
*239 u_async_fifo/fifomem/_110_
*240 u_async_fifo/fifomem/_111_
*241 u_async_fifo/fifomem/_112_
*242 u_async_fifo/fifomem/_113_
*243 u_async_fifo/fifomem/_114_
*244 u_async_fifo/fifomem/_115_
*245 u_async_fifo/fifomem/_116_
*246 u_async_fifo/fifomem/_117_
*247 u_async_fifo/fifomem/_118_
*248 u_async_fifo/fifomem/_119_
*249 u_async_fifo/fifomem/_120_
*250 u_async_fifo/fifomem/_121_
*251 u_async_fifo/fifomem/_122_
*252 u_async_fifo/fifomem/_123_
*253 u_async_fifo/fifomem/_124_
*254 u_async_fifo/fifomem/_125_
*255 u_async_fifo/fifomem/_126_
*256 u_async_fifo/fifomem/_127_
*257 u_async_fifo/fifomem/_128_
*258 u_async_fifo/fifomem/_129_
*259 u_async_fifo/fifomem/_130_
*260 u_async_fifo/fifomem/_131_
*261 u_async_fifo/fifomem/_132_
*262 u_async_fifo/fifomem/_133_
*263 u_async_fifo/fifomem/_134_
*264 u_async_fifo/fifomem/_135_
*265 u_async_fifo/fifomem/_136_
*266 u_async_fifo/fifomem/_137_
*267 u_async_fifo/fifomem/_138_
*268 u_async_fifo/fifomem/_139_
*269 u_async_fifo/fifomem/_140_
*270 u_async_fifo/fifomem/_141_
*271 u_async_fifo/fifomem/_142_
*272 u_async_fifo/fifomem/_143_
*273 u_async_fifo/fifomem/_144_
*274 u_async_fifo/fifomem/_145_
*275 u_async_fifo/fifomem/_146_
*276 u_async_fifo/fifomem/_147_
*277 u_async_fifo/fifomem/_148_
*278 u_async_fifo/fifomem/_149_
*279 u_async_fifo/fifomem/_150_
*280 u_async_fifo/fifomem/_151_
*281 u_async_fifo/fifomem/_152_
*282 u_async_fifo/fifomem/_153_
*283 u_async_fifo/fifomem/_154_
*284 u_async_fifo/fifomem/_155_
*285 u_async_fifo/fifomem/_156_
*286 u_async_fifo/fifomem/_157_
*287 u_async_fifo/fifomem/_158_
*288 u_async_fifo/fifomem/_159_
*289 u_async_fifo/fifomem/_160_
*290 u_async_fifo/fifomem/_161_
*291 u_async_fifo/fifomem/_162_
*292 u_async_fifo/fifomem/_163_
*293 u_async_fifo/fifomem/_164_
*294 u_async_fifo/fifomem/_165_
*295 u_async_fifo/fifomem/_166_
*296 u_async_fifo/fifomem/_167_
*297 u_async_fifo/fifomem/_168_
*298 u_async_fifo/fifomem/_169_
*299 u_async_fifo/fifomem/_170_
*300 u_async_fifo/fifomem/_171_
*301 u_async_fifo/fifomem/_172_
*302 u_async_fifo/fifomem/_173_
*303 u_async_fifo/fifomem/_174_
*304 u_async_fifo/fifomem/_175_
*305 u_async_fifo/fifomem/_176_
*306 u_async_fifo/fifomem/_177_
*307 u_async_fifo/fifomem/_178_
*308 u_async_fifo/fifomem/_179_
*309 u_async_fifo/fifomem/_180_
*310 u_async_fifo/fifomem/_181_
*311 u_async_fifo/fifomem/_182_
*312 u_async_fifo/fifomem/_183_
*313 u_async_fifo/fifomem/_184_
*314 u_async_fifo/fifomem/mem\[0\][0]
*315 u_async_fifo/fifomem/mem\[0\][1]
*316 u_async_fifo/fifomem/mem\[0\][2]
*317 u_async_fifo/fifomem/mem\[0\][3]
*318 u_async_fifo/fifomem/mem\[0\][4]
*319 u_async_fifo/fifomem/mem\[0\][5]
*320 u_async_fifo/fifomem/mem\[0\][6]
*321 u_async_fifo/fifomem/mem\[0\][7]
*322 u_async_fifo/fifomem/mem\[10\][0]
*323 u_async_fifo/fifomem/mem\[10\][1]
*324 u_async_fifo/fifomem/mem\[10\][2]
*325 u_async_fifo/fifomem/mem\[10\][3]
*326 u_async_fifo/fifomem/mem\[10\][4]
*327 u_async_fifo/fifomem/mem\[10\][5]
*328 u_async_fifo/fifomem/mem\[10\][6]
*329 u_async_fifo/fifomem/mem\[10\][7]
*330 u_async_fifo/fifomem/mem\[11\][0]
*331 u_async_fifo/fifomem/mem\[11\][1]
*332 u_async_fifo/fifomem/mem\[11\][2]
*333 u_async_fifo/fifomem/mem\[11\][3]
*334 u_async_fifo/fifomem/mem\[11\][4]
*335 u_async_fifo/fifomem/mem\[11\][5]
*336 u_async_fifo/fifomem/mem\[11\][6]
*337 u_async_fifo/fifomem/mem\[11\][7]
*338 u_async_fifo/fifomem/mem\[12\][0]
*339 u_async_fifo/fifomem/mem\[12\][1]
*340 u_async_fifo/fifomem/mem\[12\][2]
*341 u_async_fifo/fifomem/mem\[12\][3]
*342 u_async_fifo/fifomem/mem\[12\][4]
*343 u_async_fifo/fifomem/mem\[12\][5]
*344 u_async_fifo/fifomem/mem\[12\][6]
*345 u_async_fifo/fifomem/mem\[12\][7]
*346 u_async_fifo/fifomem/mem\[13\][0]
*347 u_async_fifo/fifomem/mem\[13\][1]
*348 u_async_fifo/fifomem/mem\[13\][2]
*349 u_async_fifo/fifomem/mem\[13\][3]
*350 u_async_fifo/fifomem/mem\[13\][4]
*351 u_async_fifo/fifomem/mem\[13\][5]
*352 u_async_fifo/fifomem/mem\[13\][6]
*353 u_async_fifo/fifomem/mem\[13\][7]
*354 u_async_fifo/fifomem/mem\[14\][0]
*355 u_async_fifo/fifomem/mem\[14\][1]
*356 u_async_fifo/fifomem/mem\[14\][2]
*357 u_async_fifo/fifomem/mem\[14\][3]
*358 u_async_fifo/fifomem/mem\[14\][4]
*359 u_async_fifo/fifomem/mem\[14\][5]
*360 u_async_fifo/fifomem/mem\[14\][6]
*361 u_async_fifo/fifomem/mem\[14\][7]
*362 u_async_fifo/fifomem/mem\[15\][0]
*363 u_async_fifo/fifomem/mem\[15\][1]
*364 u_async_fifo/fifomem/mem\[15\][2]
*365 u_async_fifo/fifomem/mem\[15\][3]
*366 u_async_fifo/fifomem/mem\[15\][4]
*367 u_async_fifo/fifomem/mem\[15\][5]
*368 u_async_fifo/fifomem/mem\[15\][6]
*369 u_async_fifo/fifomem/mem\[15\][7]
*370 u_async_fifo/fifomem/mem\[1\][0]
*371 u_async_fifo/fifomem/mem\[1\][1]
*372 u_async_fifo/fifomem/mem\[1\][2]
*373 u_async_fifo/fifomem/mem\[1\][3]
*374 u_async_fifo/fifomem/mem\[1\][4]
*375 u_async_fifo/fifomem/mem\[1\][5]
*376 u_async_fifo/fifomem/mem\[1\][6]
*377 u_async_fifo/fifomem/mem\[1\][7]
*378 u_async_fifo/fifomem/mem\[2\][0]
*379 u_async_fifo/fifomem/mem\[2\][1]
*380 u_async_fifo/fifomem/mem\[2\][2]
*381 u_async_fifo/fifomem/mem\[2\][3]
*382 u_async_fifo/fifomem/mem\[2\][4]
*383 u_async_fifo/fifomem/mem\[2\][5]
*384 u_async_fifo/fifomem/mem\[2\][6]
*385 u_async_fifo/fifomem/mem\[2\][7]
*386 u_async_fifo/fifomem/mem\[3\][0]
*387 u_async_fifo/fifomem/mem\[3\][1]
*388 u_async_fifo/fifomem/mem\[3\][2]
*389 u_async_fifo/fifomem/mem\[3\][3]
*390 u_async_fifo/fifomem/mem\[3\][4]
*391 u_async_fifo/fifomem/mem\[3\][5]
*392 u_async_fifo/fifomem/mem\[3\][6]
*393 u_async_fifo/fifomem/mem\[3\][7]
*394 u_async_fifo/fifomem/mem\[4\][0]
*395 u_async_fifo/fifomem/mem\[4\][1]
*396 u_async_fifo/fifomem/mem\[4\][2]
*397 u_async_fifo/fifomem/mem\[4\][3]
*398 u_async_fifo/fifomem/mem\[4\][4]
*399 u_async_fifo/fifomem/mem\[4\][5]
*400 u_async_fifo/fifomem/mem\[4\][6]
*401 u_async_fifo/fifomem/mem\[4\][7]
*402 u_async_fifo/fifomem/mem\[5\][0]
*403 u_async_fifo/fifomem/mem\[5\][1]
*404 u_async_fifo/fifomem/mem\[5\][2]
*405 u_async_fifo/fifomem/mem\[5\][3]
*406 u_async_fifo/fifomem/mem\[5\][4]
*407 u_async_fifo/fifomem/mem\[5\][5]
*408 u_async_fifo/fifomem/mem\[5\][6]
*409 u_async_fifo/fifomem/mem\[5\][7]
*410 u_async_fifo/fifomem/mem\[6\][0]
*411 u_async_fifo/fifomem/mem\[6\][1]
*412 u_async_fifo/fifomem/mem\[6\][2]
*413 u_async_fifo/fifomem/mem\[6\][3]
*414 u_async_fifo/fifomem/mem\[6\][4]
*415 u_async_fifo/fifomem/mem\[6\][5]
*416 u_async_fifo/fifomem/mem\[6\][6]
*417 u_async_fifo/fifomem/mem\[6\][7]
*418 u_async_fifo/fifomem/mem\[7\][0]
*419 u_async_fifo/fifomem/mem\[7\][1]
*420 u_async_fifo/fifomem/mem\[7\][2]
*421 u_async_fifo/fifomem/mem\[7\][3]
*422 u_async_fifo/fifomem/mem\[7\][4]
*423 u_async_fifo/fifomem/mem\[7\][5]
*424 u_async_fifo/fifomem/mem\[7\][6]
*425 u_async_fifo/fifomem/mem\[7\][7]
*426 u_async_fifo/fifomem/mem\[8\][0]
*427 u_async_fifo/fifomem/mem\[8\][1]
*428 u_async_fifo/fifomem/mem\[8\][2]
*429 u_async_fifo/fifomem/mem\[8\][3]
*430 u_async_fifo/fifomem/mem\[8\][4]
*431 u_async_fifo/fifomem/mem\[8\][5]
*432 u_async_fifo/fifomem/mem\[8\][6]
*433 u_async_fifo/fifomem/mem\[8\][7]
*434 u_async_fifo/fifomem/mem\[9\][0]
*435 u_async_fifo/fifomem/mem\[9\][1]
*436 u_async_fifo/fifomem/mem\[9\][2]
*437 u_async_fifo/fifomem/mem\[9\][3]
*438 u_async_fifo/fifomem/mem\[9\][4]
*439 u_async_fifo/fifomem/mem\[9\][5]
*440 u_async_fifo/fifomem/mem\[9\][6]
*441 u_async_fifo/fifomem/mem\[9\][7]
*442 u_async_fifo/raddr[0]
*443 u_async_fifo/raddr[1]
*444 u_async_fifo/raddr[2]
*445 u_async_fifo/raddr[3]
*446 u_async_fifo/rptr[0]
*447 u_async_fifo/rptr[1]
*448 u_async_fifo/rptr[2]
*449 u_async_fifo/rptr[3]
*450 u_async_fifo/rptr[4]
*451 u_async_fifo/rptr_empty/_00_
*452 u_async_fifo/rptr_empty/_01_
*453 u_async_fifo/rptr_empty/_02_
*454 u_async_fifo/rptr_empty/_03_
*455 u_async_fifo/rptr_empty/_04_
*456 u_async_fifo/rptr_empty/_05_
*457 u_async_fifo/rptr_empty/_06_
*458 u_async_fifo/rptr_empty/_07_
*459 u_async_fifo/rptr_empty/_08_
*460 u_async_fifo/rptr_empty/_09_
*461 u_async_fifo/rptr_empty/_10_
*462 u_async_fifo/rptr_empty/_11_
*463 u_async_fifo/rptr_empty/_12_
*464 u_async_fifo/rptr_empty/_13_
*465 u_async_fifo/rptr_empty/rbinnext[0]
*466 u_async_fifo/rptr_empty/rbinnext[1]
*467 u_async_fifo/rptr_empty/rbinnext[2]
*468 u_async_fifo/rptr_empty/rbinnext[3]
*469 u_async_fifo/rptr_empty/rbinnext[4]
*470 u_async_fifo/rptr_empty/rempty_val
*471 u_async_fifo/rptr_empty/rgraynext[0]
*472 u_async_fifo/rptr_empty/rgraynext[1]
*473 u_async_fifo/rptr_empty/rgraynext[2]
*474 u_async_fifo/rptr_empty/rgraynext[3]
*475 u_async_fifo/rq2_wptr[0]
*476 u_async_fifo/rq2_wptr[1]
*477 u_async_fifo/rq2_wptr[2]
*478 u_async_fifo/rq2_wptr[3]
*479 u_async_fifo/rq2_wptr[4]
*480 u_async_fifo/sync_r2w/wq1_rptr[0]
*481 u_async_fifo/sync_r2w/wq1_rptr[1]
*482 u_async_fifo/sync_r2w/wq1_rptr[2]
*483 u_async_fifo/sync_r2w/wq1_rptr[3]
*484 u_async_fifo/sync_r2w/wq1_rptr[4]
*485 u_async_fifo/sync_w2r/rq1_wptr[0]
*486 u_async_fifo/sync_w2r/rq1_wptr[1]
*487 u_async_fifo/sync_w2r/rq1_wptr[2]
*488 u_async_fifo/sync_w2r/rq1_wptr[3]
*489 u_async_fifo/sync_w2r/rq1_wptr[4]
*490 u_async_fifo/waddr[0]
*491 u_async_fifo/waddr[1]
*492 u_async_fifo/waddr[2]
*493 u_async_fifo/waddr[3]
*494 u_async_fifo/wptr[0]
*495 u_async_fifo/wptr[1]
*496 u_async_fifo/wptr[2]
*497 u_async_fifo/wptr[3]
*498 u_async_fifo/wptr[4]
*499 u_async_fifo/wptr_full/_00_
*500 u_async_fifo/wptr_full/_01_
*501 u_async_fifo/wptr_full/_02_
*502 u_async_fifo/wptr_full/_03_
*503 u_async_fifo/wptr_full/_04_
*504 u_async_fifo/wptr_full/_05_
*505 u_async_fifo/wptr_full/_06_
*506 u_async_fifo/wptr_full/_07_
*507 u_async_fifo/wptr_full/_08_
*508 u_async_fifo/wptr_full/_09_
*509 u_async_fifo/wptr_full/_10_
*510 u_async_fifo/wptr_full/_11_
*511 u_async_fifo/wptr_full/_12_
*512 u_async_fifo/wptr_full/_13_
*513 u_async_fifo/wptr_full/wbinnext[0]
*514 u_async_fifo/wptr_full/wbinnext[1]
*515 u_async_fifo/wptr_full/wbinnext[2]
*516 u_async_fifo/wptr_full/wbinnext[3]
*517 u_async_fifo/wptr_full/wbinnext[4]
*518 u_async_fifo/wptr_full/wfull_val
*519 u_async_fifo/wptr_full/wgraynext[0]
*520 u_async_fifo/wptr_full/wgraynext[1]
*521 u_async_fifo/wptr_full/wgraynext[2]
*522 u_async_fifo/wptr_full/wgraynext[3]
*523 u_async_fifo/wq2_rptr[0]
*524 u_async_fifo/wq2_rptr[1]
*525 u_async_fifo/wq2_rptr[2]
*526 u_async_fifo/wq2_rptr[3]
*527 u_async_fifo/wq2_rptr[4]
*528 u_axi_slave/_000_
*529 u_axi_slave/_001_
*530 u_axi_slave/_002_
*531 u_axi_slave/_003_
*532 u_axi_slave/_004_
*533 u_axi_slave/_005_
*534 u_axi_slave/_006_
*535 u_axi_slave/_007_
*536 u_axi_slave/_008_
*537 u_axi_slave/_009_
*538 u_axi_slave/_010_
*539 u_axi_slave/_011_
*540 u_axi_slave/_012_
*541 u_axi_slave/_013_
*542 u_axi_slave/_014_
*543 u_axi_slave/_015_
*544 u_axi_slave/_016_
*545 u_axi_slave/_017_
*546 u_axi_slave/_018_
*547 u_axi_slave/_019_
*548 u_axi_slave/_020_
*549 u_axi_slave/_021_
*550 u_axi_slave/_022_
*551 u_axi_slave/_023_
*552 u_axi_slave/_024_
*553 u_axi_slave/_025_
*554 u_axi_slave/_026_
*555 u_axi_slave/_027_
*556 u_axi_slave/_028_
*557 u_axi_slave/_029_
*558 u_axi_slave/_030_
*559 u_axi_slave/_031_
*560 u_axi_slave/_032_
*561 u_axi_slave/_033_
*562 u_axi_slave/_034_
*563 u_axi_slave/_035_
*564 u_axi_slave/_036_
*565 u_axi_slave/_037_
*566 u_axi_slave/_038_
*567 u_axi_slave/_039_
*568 u_axi_slave/_040_
*569 u_axi_slave/_041_
*570 u_axi_slave/_042_
*571 u_axi_slave/_043_
*572 u_axi_slave/_044_
*573 u_axi_slave/_045_
*574 u_axi_slave/_046_
*575 u_axi_slave/_047_
*576 u_axi_slave/_048_
*577 u_axi_slave/_049_
*578 u_axi_slave/_050_
*579 u_axi_slave/_051_
*580 u_axi_slave/_052_
*581 u_axi_slave/_053_
*582 u_axi_slave/_054_
*583 u_axi_slave/_055_
*584 u_axi_slave/_056_
*585 u_axi_slave/_057_
*586 u_axi_slave/_058_
*587 u_axi_slave/_059_
*588 u_axi_slave/_060_
*589 u_axi_slave/_061_
*590 u_axi_slave/_062_
*591 u_axi_slave/_063_
*592 u_axi_slave/_064_
*593 u_axi_slave/_065_
*594 u_axi_slave/_066_
*595 u_axi_slave/_067_
*596 u_axi_slave/_068_
*597 u_axi_slave/_069_
*598 u_axi_slave/_070_
*599 u_axi_slave/_071_
*600 u_axi_slave/_072_
*601 u_axi_slave/_073_
*602 u_axi_slave/_074_
*603 u_axi_slave/_075_
*604 u_axi_slave/_076_
*605 u_axi_slave/_077_
*606 u_axi_slave/_078_
*607 u_axi_slave/_079_
*608 u_axi_slave/_080_
*609 u_axi_slave/_081_
*610 u_axi_slave/_082_
*611 u_axi_slave/_083_
*612 u_axi_slave/_084_
*613 u_axi_slave/_085_
*614 u_axi_slave/_086_
*615 u_axi_slave/_087_
*616 u_axi_slave/_088_
*617 u_axi_slave/_089_
*618 u_axi_slave/_090_
*619 u_axi_slave/_091_
*620 u_axi_slave/_092_
*621 u_axi_slave/_093_
*622 u_axi_slave/_094_
*623 u_axi_slave/_095_
*624 u_axi_slave/_096_
*625 u_axi_slave/byte_index[0]
*626 u_axi_slave/byte_index[1]
*627 u_axi_slave/state[0]
*628 u_axi_slave/state[1]
*629 u_axi_slave/wdata_latched[0]
*630 u_axi_slave/wdata_latched[10]
*631 u_axi_slave/wdata_latched[11]
*632 u_axi_slave/wdata_latched[12]
*633 u_axi_slave/wdata_latched[13]
*634 u_axi_slave/wdata_latched[14]
*635 u_axi_slave/wdata_latched[15]
*636 u_axi_slave/wdata_latched[16]
*637 u_axi_slave/wdata_latched[17]
*638 u_axi_slave/wdata_latched[18]
*639 u_axi_slave/wdata_latched[19]
*640 u_axi_slave/wdata_latched[1]
*641 u_axi_slave/wdata_latched[20]
*642 u_axi_slave/wdata_latched[21]
*643 u_axi_slave/wdata_latched[22]
*644 u_axi_slave/wdata_latched[23]
*645 u_axi_slave/wdata_latched[24]
*646 u_axi_slave/wdata_latched[25]
*647 u_axi_slave/wdata_latched[26]
*648 u_axi_slave/wdata_latched[27]
*649 u_axi_slave/wdata_latched[28]
*650 u_axi_slave/wdata_latched[29]
*651 u_axi_slave/wdata_latched[2]
*652 u_axi_slave/wdata_latched[30]
*653 u_axi_slave/wdata_latched[31]
*654 u_axi_slave/wdata_latched[3]
*655 u_axi_slave/wdata_latched[4]
*656 u_axi_slave/wdata_latched[5]
*657 u_axi_slave/wdata_latched[6]
*658 u_axi_slave/wdata_latched[7]
*659 u_axi_slave/wdata_latched[8]
*660 u_axi_slave/wdata_latched[9]
*661 u_axi_slave/wstrb_latched[0]
*662 u_axi_slave/wstrb_latched[1]
*663 u_axi_slave/wstrb_latched[2]
*664 u_axi_slave/wstrb_latched[3]
*665 u_uart_tx/_000_
*666 u_uart_tx/_001_
*667 u_uart_tx/_002_
*668 u_uart_tx/_003_
*669 u_uart_tx/_004_
*670 u_uart_tx/_005_
*671 u_uart_tx/_006_
*672 u_uart_tx/_007_
*673 u_uart_tx/_008_
*674 u_uart_tx/_009_
*675 u_uart_tx/_010_
*676 u_uart_tx/_011_
*677 u_uart_tx/_012_
*678 u_uart_tx/_013_
*679 u_uart_tx/_014_
*680 u_uart_tx/_015_
*681 u_uart_tx/_016_
*682 u_uart_tx/_017_
*683 u_uart_tx/_018_
*684 u_uart_tx/_019_
*685 u_uart_tx/_020_
*686 u_uart_tx/_021_
*687 u_uart_tx/_022_
*688 u_uart_tx/_023_
*689 u_uart_tx/_024_
*690 u_uart_tx/_025_
*691 u_uart_tx/_026_
*692 u_uart_tx/_027_
*693 u_uart_tx/_028_
*694 u_uart_tx/_029_
*695 u_uart_tx/_030_
*696 u_uart_tx/_031_
*697 u_uart_tx/_032_
*698 u_uart_tx/_033_
*699 u_uart_tx/_034_
*700 u_uart_tx/_035_
*701 u_uart_tx/_036_
*702 u_uart_tx/_037_
*703 u_uart_tx/_038_
*704 u_uart_tx/_039_
*705 u_uart_tx/_040_
*706 u_uart_tx/_041_
*707 u_uart_tx/_042_
*708 u_uart_tx/_043_
*709 u_uart_tx/_044_
*710 u_uart_tx/_045_
*711 u_uart_tx/_046_
*712 u_uart_tx/_047_
*713 u_uart_tx/_048_
*714 u_uart_tx/_049_
*715 u_uart_tx/_050_
*716 u_uart_tx/_051_
*717 u_uart_tx/_052_
*718 u_uart_tx/_053_
*719 u_uart_tx/_054_
*720 u_uart_tx/_055_
*721 u_uart_tx/_056_
*722 u_uart_tx/_057_
*723 u_uart_tx/_058_
*724 u_uart_tx/_059_
*725 u_uart_tx/_060_
*726 u_uart_tx/_061_
*727 u_uart_tx/_062_
*728 u_uart_tx/_063_
*729 u_uart_tx/_064_
*730 u_uart_tx/_065_
*731 u_uart_tx/_066_
*732 u_uart_tx/_067_
*733 u_uart_tx/bit_index[0]
*734 u_uart_tx/bit_index[1]
*735 u_uart_tx/bit_index[2]
*736 u_uart_tx/clk_count[0]
*737 u_uart_tx/clk_count[10]
*738 u_uart_tx/clk_count[11]
*739 u_uart_tx/clk_count[12]
*740 u_uart_tx/clk_count[13]
*741 u_uart_tx/clk_count[14]
*742 u_uart_tx/clk_count[15]
*743 u_uart_tx/clk_count[1]
*744 u_uart_tx/clk_count[2]
*745 u_uart_tx/clk_count[3]
*746 u_uart_tx/clk_count[4]
*747 u_uart_tx/clk_count[5]
*748 u_uart_tx/clk_count[6]
*749 u_uart_tx/clk_count[7]
*750 u_uart_tx/clk_count[8]
*751 u_uart_tx/clk_count[9]
*752 u_uart_tx/state[0]
*753 u_uart_tx/state[1]
*754 u_uart_tx/tx_active
*755 u_uart_tx/tx_data_r[0]
*756 u_uart_tx/tx_data_r[1]
*757 u_uart_tx/tx_data_r[2]
*758 u_uart_tx/tx_data_r[3]
*759 u_uart_tx/tx_data_r[4]
*760 u_uart_tx/tx_data_r[5]
*761 u_uart_tx/tx_data_r[6]
*762 u_uart_tx/tx_data_r[7]
*763 u_uart_tx/tx_done
*764 u_uart_tx/zero_
*765 uart_ready
*766 zero_
*767 PHY_EDGE_ROW_0_Left_47
*768 PHY_EDGE_ROW_0_Right_0
*769 PHY_EDGE_ROW_10_Left_57
*770 PHY_EDGE_ROW_10_Right_10
*771 PHY_EDGE_ROW_11_Left_58
*772 PHY_EDGE_ROW_11_Right_11
*773 PHY_EDGE_ROW_12_Left_59
*774 PHY_EDGE_ROW_12_Right_12
*775 PHY_EDGE_ROW_13_Left_60
*776 PHY_EDGE_ROW_13_Right_13
*777 PHY_EDGE_ROW_14_Left_61
*778 PHY_EDGE_ROW_14_Right_14
*779 PHY_EDGE_ROW_15_Left_62
*780 PHY_EDGE_ROW_15_Right_15
*781 PHY_EDGE_ROW_16_Left_63
*782 PHY_EDGE_ROW_16_Right_16
*783 PHY_EDGE_ROW_17_Left_64
*784 PHY_EDGE_ROW_17_Right_17
*785 PHY_EDGE_ROW_18_Left_65
*786 PHY_EDGE_ROW_18_Right_18
*787 PHY_EDGE_ROW_19_Left_66
*788 PHY_EDGE_ROW_19_Right_19
*789 PHY_EDGE_ROW_1_Left_48
*790 PHY_EDGE_ROW_1_Right_1
*791 PHY_EDGE_ROW_20_Left_67
*792 PHY_EDGE_ROW_20_Right_20
*793 PHY_EDGE_ROW_21_Left_68
*794 PHY_EDGE_ROW_21_Right_21
*795 PHY_EDGE_ROW_22_Left_69
*796 PHY_EDGE_ROW_22_Right_22
*797 PHY_EDGE_ROW_23_Left_70
*798 PHY_EDGE_ROW_23_Right_23
*799 PHY_EDGE_ROW_24_Left_71
*800 PHY_EDGE_ROW_24_Right_24
*801 PHY_EDGE_ROW_25_Left_72
*802 PHY_EDGE_ROW_25_Right_25
*803 PHY_EDGE_ROW_26_Left_73
*804 PHY_EDGE_ROW_26_Right_26
*805 PHY_EDGE_ROW_27_Left_74
*806 PHY_EDGE_ROW_27_Right_27
*807 PHY_EDGE_ROW_28_Left_75
*808 PHY_EDGE_ROW_28_Right_28
*809 PHY_EDGE_ROW_29_Left_76
*810 PHY_EDGE_ROW_29_Right_29
*811 PHY_EDGE_ROW_2_Left_49
*812 PHY_EDGE_ROW_2_Right_2
*813 PHY_EDGE_ROW_30_Left_77
*814 PHY_EDGE_ROW_30_Right_30
*815 PHY_EDGE_ROW_31_Left_78
*816 PHY_EDGE_ROW_31_Right_31
*817 PHY_EDGE_ROW_32_Left_79
*818 PHY_EDGE_ROW_32_Right_32
*819 PHY_EDGE_ROW_33_Left_80
*820 PHY_EDGE_ROW_33_Right_33
*821 PHY_EDGE_ROW_34_Left_81
*822 PHY_EDGE_ROW_34_Right_34
*823 PHY_EDGE_ROW_35_Left_82
*824 PHY_EDGE_ROW_35_Right_35
*825 PHY_EDGE_ROW_36_Left_83
*826 PHY_EDGE_ROW_36_Right_36
*827 PHY_EDGE_ROW_37_Left_84
*828 PHY_EDGE_ROW_37_Right_37
*829 PHY_EDGE_ROW_38_Left_85
*830 PHY_EDGE_ROW_38_Right_38
*831 PHY_EDGE_ROW_39_Left_86
*832 PHY_EDGE_ROW_39_Right_39
*833 PHY_EDGE_ROW_3_Left_50
*834 PHY_EDGE_ROW_3_Right_3
*835 PHY_EDGE_ROW_40_Left_87
*836 PHY_EDGE_ROW_40_Right_40
*837 PHY_EDGE_ROW_41_Left_88
*838 PHY_EDGE_ROW_41_Right_41
*839 PHY_EDGE_ROW_42_Left_89
*840 PHY_EDGE_ROW_42_Right_42
*841 PHY_EDGE_ROW_43_Left_90
*842 PHY_EDGE_ROW_43_Right_43
*843 PHY_EDGE_ROW_44_Left_91
*844 PHY_EDGE_ROW_44_Right_44
*845 PHY_EDGE_ROW_45_Left_92
*846 PHY_EDGE_ROW_45_Right_45
*847 PHY_EDGE_ROW_46_Left_93
*848 PHY_EDGE_ROW_46_Right_46
*849 PHY_EDGE_ROW_4_Left_51
*850 PHY_EDGE_ROW_4_Right_4
*851 PHY_EDGE_ROW_5_Left_52
*852 PHY_EDGE_ROW_5_Right_5
*853 PHY_EDGE_ROW_6_Left_53
*854 PHY_EDGE_ROW_6_Right_6
*855 PHY_EDGE_ROW_7_Left_54
*856 PHY_EDGE_ROW_7_Right_7
*857 PHY_EDGE_ROW_8_Left_55
*858 PHY_EDGE_ROW_8_Right_8
*859 PHY_EDGE_ROW_9_Left_56
*860 PHY_EDGE_ROW_9_Right_9
*861 TAP_TAPCELL_ROW_0_100
*862 TAP_TAPCELL_ROW_0_101
*863 TAP_TAPCELL_ROW_0_102
*864 TAP_TAPCELL_ROW_0_94
*865 TAP_TAPCELL_ROW_0_95
*866 TAP_TAPCELL_ROW_0_96
*867 TAP_TAPCELL_ROW_0_97
*868 TAP_TAPCELL_ROW_0_98
*869 TAP_TAPCELL_ROW_0_99
*870 TAP_TAPCELL_ROW_10_143
*871 TAP_TAPCELL_ROW_10_144
*872 TAP_TAPCELL_ROW_10_145
*873 TAP_TAPCELL_ROW_10_146
*874 TAP_TAPCELL_ROW_10_147
*875 TAP_TAPCELL_ROW_11_148
*876 TAP_TAPCELL_ROW_11_149
*877 TAP_TAPCELL_ROW_11_150
*878 TAP_TAPCELL_ROW_11_151
*879 TAP_TAPCELL_ROW_12_152
*880 TAP_TAPCELL_ROW_12_153
*881 TAP_TAPCELL_ROW_12_154
*882 TAP_TAPCELL_ROW_12_155
*883 TAP_TAPCELL_ROW_12_156
*884 TAP_TAPCELL_ROW_13_157
*885 TAP_TAPCELL_ROW_13_158
*886 TAP_TAPCELL_ROW_13_159
*887 TAP_TAPCELL_ROW_13_160
*888 TAP_TAPCELL_ROW_14_161
*889 TAP_TAPCELL_ROW_14_162
*890 TAP_TAPCELL_ROW_14_163
*891 TAP_TAPCELL_ROW_14_164
*892 TAP_TAPCELL_ROW_14_165
*893 TAP_TAPCELL_ROW_15_166
*894 TAP_TAPCELL_ROW_15_167
*895 TAP_TAPCELL_ROW_15_168
*896 TAP_TAPCELL_ROW_15_169
*897 TAP_TAPCELL_ROW_16_170
*898 TAP_TAPCELL_ROW_16_171
*899 TAP_TAPCELL_ROW_16_172
*900 TAP_TAPCELL_ROW_16_173
*901 TAP_TAPCELL_ROW_16_174
*902 TAP_TAPCELL_ROW_17_175
*903 TAP_TAPCELL_ROW_17_176
*904 TAP_TAPCELL_ROW_17_177
*905 TAP_TAPCELL_ROW_17_178
*906 TAP_TAPCELL_ROW_18_179
*907 TAP_TAPCELL_ROW_18_180
*908 TAP_TAPCELL_ROW_18_181
*909 TAP_TAPCELL_ROW_18_182
*910 TAP_TAPCELL_ROW_18_183
*911 TAP_TAPCELL_ROW_19_184
*912 TAP_TAPCELL_ROW_19_185
*913 TAP_TAPCELL_ROW_19_186
*914 TAP_TAPCELL_ROW_19_187
*915 TAP_TAPCELL_ROW_1_103
*916 TAP_TAPCELL_ROW_1_104
*917 TAP_TAPCELL_ROW_1_105
*918 TAP_TAPCELL_ROW_1_106
*919 TAP_TAPCELL_ROW_20_188
*920 TAP_TAPCELL_ROW_20_189
*921 TAP_TAPCELL_ROW_20_190
*922 TAP_TAPCELL_ROW_20_191
*923 TAP_TAPCELL_ROW_20_192
*924 TAP_TAPCELL_ROW_21_193
*925 TAP_TAPCELL_ROW_21_194
*926 TAP_TAPCELL_ROW_21_195
*927 TAP_TAPCELL_ROW_21_196
*928 TAP_TAPCELL_ROW_22_197
*929 TAP_TAPCELL_ROW_22_198
*930 TAP_TAPCELL_ROW_22_199
*931 TAP_TAPCELL_ROW_22_200
*932 TAP_TAPCELL_ROW_22_201
*933 TAP_TAPCELL_ROW_23_202
*934 TAP_TAPCELL_ROW_23_203
*935 TAP_TAPCELL_ROW_23_204
*936 TAP_TAPCELL_ROW_23_205
*937 TAP_TAPCELL_ROW_24_206
*938 TAP_TAPCELL_ROW_24_207
*939 TAP_TAPCELL_ROW_24_208
*940 TAP_TAPCELL_ROW_24_209
*941 TAP_TAPCELL_ROW_24_210
*942 TAP_TAPCELL_ROW_25_211
*943 TAP_TAPCELL_ROW_25_212
*944 TAP_TAPCELL_ROW_25_213
*945 TAP_TAPCELL_ROW_25_214
*946 TAP_TAPCELL_ROW_26_215
*947 TAP_TAPCELL_ROW_26_216
*948 TAP_TAPCELL_ROW_26_217
*949 TAP_TAPCELL_ROW_26_218
*950 TAP_TAPCELL_ROW_26_219
*951 TAP_TAPCELL_ROW_27_220
*952 TAP_TAPCELL_ROW_27_221
*953 TAP_TAPCELL_ROW_27_222
*954 TAP_TAPCELL_ROW_27_223
*955 TAP_TAPCELL_ROW_28_224
*956 TAP_TAPCELL_ROW_28_225
*957 TAP_TAPCELL_ROW_28_226
*958 TAP_TAPCELL_ROW_28_227
*959 TAP_TAPCELL_ROW_28_228
*960 TAP_TAPCELL_ROW_29_229
*961 TAP_TAPCELL_ROW_29_230
*962 TAP_TAPCELL_ROW_29_231
*963 TAP_TAPCELL_ROW_29_232
*964 TAP_TAPCELL_ROW_2_107
*965 TAP_TAPCELL_ROW_2_108
*966 TAP_TAPCELL_ROW_2_109
*967 TAP_TAPCELL_ROW_2_110
*968 TAP_TAPCELL_ROW_2_111
*969 TAP_TAPCELL_ROW_30_233
*970 TAP_TAPCELL_ROW_30_234
*971 TAP_TAPCELL_ROW_30_235
*972 TAP_TAPCELL_ROW_30_236
*973 TAP_TAPCELL_ROW_30_237
*974 TAP_TAPCELL_ROW_31_238
*975 TAP_TAPCELL_ROW_31_239
*976 TAP_TAPCELL_ROW_31_240
*977 TAP_TAPCELL_ROW_31_241
*978 TAP_TAPCELL_ROW_32_242
*979 TAP_TAPCELL_ROW_32_243
*980 TAP_TAPCELL_ROW_32_244
*981 TAP_TAPCELL_ROW_32_245
*982 TAP_TAPCELL_ROW_32_246
*983 TAP_TAPCELL_ROW_33_247
*984 TAP_TAPCELL_ROW_33_248
*985 TAP_TAPCELL_ROW_33_249
*986 TAP_TAPCELL_ROW_33_250
*987 TAP_TAPCELL_ROW_34_251
*988 TAP_TAPCELL_ROW_34_252
*989 TAP_TAPCELL_ROW_34_253
*990 TAP_TAPCELL_ROW_34_254
*991 TAP_TAPCELL_ROW_34_255
*992 TAP_TAPCELL_ROW_35_256
*993 TAP_TAPCELL_ROW_35_257
*994 TAP_TAPCELL_ROW_35_258
*995 TAP_TAPCELL_ROW_35_259
*996 TAP_TAPCELL_ROW_36_260
*997 TAP_TAPCELL_ROW_36_261
*998 TAP_TAPCELL_ROW_36_262
*999 TAP_TAPCELL_ROW_36_263
*1000 TAP_TAPCELL_ROW_36_264
*1001 TAP_TAPCELL_ROW_37_265
*1002 TAP_TAPCELL_ROW_37_266
*1003 TAP_TAPCELL_ROW_37_267
*1004 TAP_TAPCELL_ROW_37_268
*1005 TAP_TAPCELL_ROW_38_269
*1006 TAP_TAPCELL_ROW_38_270
*1007 TAP_TAPCELL_ROW_38_271
*1008 TAP_TAPCELL_ROW_38_272
*1009 TAP_TAPCELL_ROW_38_273
*1010 TAP_TAPCELL_ROW_39_274
*1011 TAP_TAPCELL_ROW_39_275
*1012 TAP_TAPCELL_ROW_39_276
*1013 TAP_TAPCELL_ROW_39_277
*1014 TAP_TAPCELL_ROW_3_112
*1015 TAP_TAPCELL_ROW_3_113
*1016 TAP_TAPCELL_ROW_3_114
*1017 TAP_TAPCELL_ROW_3_115
*1018 TAP_TAPCELL_ROW_40_278
*1019 TAP_TAPCELL_ROW_40_279
*1020 TAP_TAPCELL_ROW_40_280
*1021 TAP_TAPCELL_ROW_40_281
*1022 TAP_TAPCELL_ROW_40_282
*1023 TAP_TAPCELL_ROW_41_283
*1024 TAP_TAPCELL_ROW_41_284
*1025 TAP_TAPCELL_ROW_41_285
*1026 TAP_TAPCELL_ROW_41_286
*1027 TAP_TAPCELL_ROW_42_287
*1028 TAP_TAPCELL_ROW_42_288
*1029 TAP_TAPCELL_ROW_42_289
*1030 TAP_TAPCELL_ROW_42_290
*1031 TAP_TAPCELL_ROW_42_291
*1032 TAP_TAPCELL_ROW_43_292
*1033 TAP_TAPCELL_ROW_43_293
*1034 TAP_TAPCELL_ROW_43_294
*1035 TAP_TAPCELL_ROW_43_295
*1036 TAP_TAPCELL_ROW_44_296
*1037 TAP_TAPCELL_ROW_44_297
*1038 TAP_TAPCELL_ROW_44_298
*1039 TAP_TAPCELL_ROW_44_299
*1040 TAP_TAPCELL_ROW_44_300
*1041 TAP_TAPCELL_ROW_45_301
*1042 TAP_TAPCELL_ROW_45_302
*1043 TAP_TAPCELL_ROW_45_303
*1044 TAP_TAPCELL_ROW_45_304
*1045 TAP_TAPCELL_ROW_46_305
*1046 TAP_TAPCELL_ROW_46_306
*1047 TAP_TAPCELL_ROW_46_307
*1048 TAP_TAPCELL_ROW_46_308
*1049 TAP_TAPCELL_ROW_46_309
*1050 TAP_TAPCELL_ROW_46_310
*1051 TAP_TAPCELL_ROW_46_311
*1052 TAP_TAPCELL_ROW_46_312
*1053 TAP_TAPCELL_ROW_46_313
*1054 TAP_TAPCELL_ROW_4_116
*1055 TAP_TAPCELL_ROW_4_117
*1056 TAP_TAPCELL_ROW_4_118
*1057 TAP_TAPCELL_ROW_4_119
*1058 TAP_TAPCELL_ROW_4_120
*1059 TAP_TAPCELL_ROW_5_121
*1060 TAP_TAPCELL_ROW_5_122
*1061 TAP_TAPCELL_ROW_5_123
*1062 TAP_TAPCELL_ROW_5_124
*1063 TAP_TAPCELL_ROW_6_125
*1064 TAP_TAPCELL_ROW_6_126
*1065 TAP_TAPCELL_ROW_6_127
*1066 TAP_TAPCELL_ROW_6_128
*1067 TAP_TAPCELL_ROW_6_129
*1068 TAP_TAPCELL_ROW_7_130
*1069 TAP_TAPCELL_ROW_7_131
*1070 TAP_TAPCELL_ROW_7_132
*1071 TAP_TAPCELL_ROW_7_133
*1072 TAP_TAPCELL_ROW_8_134
*1073 TAP_TAPCELL_ROW_8_135
*1074 TAP_TAPCELL_ROW_8_136
*1075 TAP_TAPCELL_ROW_8_137
*1076 TAP_TAPCELL_ROW_8_138
*1077 TAP_TAPCELL_ROW_9_139
*1078 TAP_TAPCELL_ROW_9_140
*1079 TAP_TAPCELL_ROW_9_141
*1080 TAP_TAPCELL_ROW_9_142
*1081 _14_
*1082 _15_
*1083 _16_
*1084 _17_
*1085 _18_
*1086 _19_
*1087 _20_
*1088 _21_
*1089 _22_
*1090 _23_
*1091 _24_
*1092 _25_
*1093 _26_
*1094 _27_
*1095 _28_
*1096 _29_
*1097 _30_
*1098 _31_
*1099 _32_
*1100 _33_
*1101 _34_
*1102 _35_
*1103 _36_
*1104 _37_
*1105 _38_
*1106 _39_
*1107 clkbuf_0_s_axi_aclk
*1108 clkbuf_0_uart_clk
*1109 clkbuf_3_0__f_uart_clk
*1110 clkbuf_3_1__f_uart_clk
*1111 clkbuf_3_2__f_uart_clk
*1112 clkbuf_3_3__f_uart_clk
*1113 clkbuf_3_4__f_uart_clk
*1114 clkbuf_3_5__f_uart_clk
*1115 clkbuf_3_6__f_uart_clk
*1116 clkbuf_3_7__f_uart_clk
*1117 clkbuf_4_0_0_s_axi_aclk
*1118 clkbuf_4_10_0_s_axi_aclk
*1119 clkbuf_4_11_0_s_axi_aclk
*1120 clkbuf_4_12_0_s_axi_aclk
*1121 clkbuf_4_13_0_s_axi_aclk
*1122 clkbuf_4_14_0_s_axi_aclk
*1123 clkbuf_4_15_0_s_axi_aclk
*1124 clkbuf_4_1_0_s_axi_aclk
*1125 clkbuf_4_2_0_s_axi_aclk
*1126 clkbuf_4_3_0_s_axi_aclk
*1127 clkbuf_4_4_0_s_axi_aclk
*1128 clkbuf_4_5_0_s_axi_aclk
*1129 clkbuf_4_6_0_s_axi_aclk
*1130 clkbuf_4_7_0_s_axi_aclk
*1131 clkbuf_4_8_0_s_axi_aclk
*1132 clkbuf_4_9_0_s_axi_aclk
*1133 max_cap1
*1134 u_async_fifo/_1_
*1135 u_async_fifo/fifomem/_185_
*1136 u_async_fifo/fifomem/_186_
*1137 u_async_fifo/fifomem/_187_
*1138 u_async_fifo/fifomem/_188_
*1139 u_async_fifo/fifomem/_189_
*1140 u_async_fifo/fifomem/_190_
*1141 u_async_fifo/fifomem/_191_
*1142 u_async_fifo/fifomem/_192_
*1143 u_async_fifo/fifomem/_193_
*1144 u_async_fifo/fifomem/_194_
*1145 u_async_fifo/fifomem/_195_
*1146 u_async_fifo/fifomem/_196_
*1147 u_async_fifo/fifomem/_197_
*1148 u_async_fifo/fifomem/_198_
*1149 u_async_fifo/fifomem/_199_
*1150 u_async_fifo/fifomem/_200_
*1151 u_async_fifo/fifomem/_201_
*1152 u_async_fifo/fifomem/_202_
*1153 u_async_fifo/fifomem/_203_
*1154 u_async_fifo/fifomem/_204_
*1155 u_async_fifo/fifomem/_205_
*1156 u_async_fifo/fifomem/_206_
*1157 u_async_fifo/fifomem/_207_
*1158 u_async_fifo/fifomem/_208_
*1159 u_async_fifo/fifomem/_209_
*1160 u_async_fifo/fifomem/_210_
*1161 u_async_fifo/fifomem/_211_
*1162 u_async_fifo/fifomem/_212_
*1163 u_async_fifo/fifomem/_213_
*1164 u_async_fifo/fifomem/_214_
*1165 u_async_fifo/fifomem/_215_
*1166 u_async_fifo/fifomem/_216_
*1167 u_async_fifo/fifomem/_217_
*1168 u_async_fifo/fifomem/_218_
*1169 u_async_fifo/fifomem/_219_
*1170 u_async_fifo/fifomem/_220_
*1171 u_async_fifo/fifomem/_221_
*1172 u_async_fifo/fifomem/_222_
*1173 u_async_fifo/fifomem/_223_
*1174 u_async_fifo/fifomem/_224_
*1175 u_async_fifo/fifomem/_225_
*1176 u_async_fifo/fifomem/_226_
*1177 u_async_fifo/fifomem/_227_
*1178 u_async_fifo/fifomem/_228_
*1179 u_async_fifo/fifomem/_229_
*1180 u_async_fifo/fifomem/_230_
*1181 u_async_fifo/fifomem/_231_
*1182 u_async_fifo/fifomem/_232_
*1183 u_async_fifo/fifomem/_233_
*1184 u_async_fifo/fifomem/_234_
*1185 u_async_fifo/fifomem/_235_
*1186 u_async_fifo/fifomem/_236_
*1187 u_async_fifo/fifomem/_237_
*1188 u_async_fifo/fifomem/_238_
*1189 u_async_fifo/fifomem/_239_
*1190 u_async_fifo/fifomem/_240_
*1191 u_async_fifo/fifomem/_241_
*1192 u_async_fifo/fifomem/_242_
*1193 u_async_fifo/fifomem/_243_
*1194 u_async_fifo/fifomem/_244_
*1195 u_async_fifo/fifomem/_245_
*1196 u_async_fifo/fifomem/_246_
*1197 u_async_fifo/fifomem/_247_
*1198 u_async_fifo/fifomem/_248_
*1199 u_async_fifo/fifomem/_249_
*1200 u_async_fifo/fifomem/_250_
*1201 u_async_fifo/fifomem/_251_
*1202 u_async_fifo/fifomem/_252_
*1203 u_async_fifo/fifomem/_253_
*1204 u_async_fifo/fifomem/_254_
*1205 u_async_fifo/fifomem/_255_
*1206 u_async_fifo/fifomem/_256_
*1207 u_async_fifo/fifomem/_257_
*1208 u_async_fifo/fifomem/_258_
*1209 u_async_fifo/fifomem/_259_
*1210 u_async_fifo/fifomem/_260_
*1211 u_async_fifo/fifomem/_261_
*1212 u_async_fifo/fifomem/_262_
*1213 u_async_fifo/fifomem/_263_
*1214 u_async_fifo/fifomem/_264_
*1215 u_async_fifo/fifomem/_265_
*1216 u_async_fifo/fifomem/_266_
*1217 u_async_fifo/fifomem/_267_
*1218 u_async_fifo/fifomem/_268_
*1219 u_async_fifo/fifomem/_269_
*1220 u_async_fifo/fifomem/_270_
*1221 u_async_fifo/fifomem/_271_
*1222 u_async_fifo/fifomem/_272_
*1223 u_async_fifo/fifomem/_273_
*1224 u_async_fifo/fifomem/_274_
*1225 u_async_fifo/fifomem/_275_
*1226 u_async_fifo/fifomem/_276_
*1227 u_async_fifo/fifomem/_277_
*1228 u_async_fifo/fifomem/_278_
*1229 u_async_fifo/fifomem/_279_
*1230 u_async_fifo/fifomem/_280_
*1231 u_async_fifo/fifomem/_281_
*1232 u_async_fifo/fifomem/_282_
*1233 u_async_fifo/fifomem/_283_
*1234 u_async_fifo/fifomem/_284_
*1235 u_async_fifo/fifomem/_285_
*1236 u_async_fifo/fifomem/_286_
*1237 u_async_fifo/fifomem/_287_
*1238 u_async_fifo/fifomem/_288_
*1239 u_async_fifo/fifomem/_289_
*1240 u_async_fifo/fifomem/_290_
*1241 u_async_fifo/fifomem/_291_
*1242 u_async_fifo/fifomem/_292_
*1243 u_async_fifo/fifomem/_293_
*1244 u_async_fifo/fifomem/_294_
*1245 u_async_fifo/fifomem/_295_
*1246 u_async_fifo/fifomem/_296_
*1247 u_async_fifo/fifomem/_297_
*1248 u_async_fifo/fifomem/_298_
*1249 u_async_fifo/fifomem/_299_
*1250 u_async_fifo/fifomem/_300_
*1251 u_async_fifo/fifomem/_301_
*1252 u_async_fifo/fifomem/_302_
*1253 u_async_fifo/fifomem/_303_
*1254 u_async_fifo/fifomem/_304_
*1255 u_async_fifo/fifomem/_305_
*1256 u_async_fifo/fifomem/_306_
*1257 u_async_fifo/fifomem/_307_
*1258 u_async_fifo/fifomem/_308_
*1259 u_async_fifo/fifomem/_309_
*1260 u_async_fifo/fifomem/_310_
*1261 u_async_fifo/fifomem/_311_
*1262 u_async_fifo/fifomem/_312_
*1263 u_async_fifo/fifomem/_313_
*1264 u_async_fifo/fifomem/_314_
*1265 u_async_fifo/fifomem/_315_
*1266 u_async_fifo/fifomem/_316_
*1267 u_async_fifo/fifomem/_317_
*1268 u_async_fifo/fifomem/_318_
*1269 u_async_fifo/fifomem/_319_
*1270 u_async_fifo/fifomem/_320_
*1271 u_async_fifo/fifomem/_321_
*1272 u_async_fifo/fifomem/_322_
*1273 u_async_fifo/fifomem/_323_
*1274 u_async_fifo/fifomem/_324_
*1275 u_async_fifo/fifomem/_325_
*1276 u_async_fifo/fifomem/_326_
*1277 u_async_fifo/fifomem/_327_
*1278 u_async_fifo/fifomem/_328_
*1279 u_async_fifo/fifomem/_329_
*1280 u_async_fifo/fifomem/_330_
*1281 u_async_fifo/fifomem/_331_
*1282 u_async_fifo/fifomem/_332_
*1283 u_async_fifo/fifomem/_333_
*1284 u_async_fifo/fifomem/_334_
*1285 u_async_fifo/fifomem/_335_
*1286 u_async_fifo/fifomem/_336_
*1287 u_async_fifo/fifomem/_337_
*1288 u_async_fifo/fifomem/_338_
*1289 u_async_fifo/fifomem/_339_
*1290 u_async_fifo/fifomem/_340_
*1291 u_async_fifo/fifomem/_341_
*1292 u_async_fifo/fifomem/_342_
*1293 u_async_fifo/fifomem/_343_
*1294 u_async_fifo/fifomem/_344_
*1295 u_async_fifo/fifomem/_345_
*1296 u_async_fifo/fifomem/_346_
*1297 u_async_fifo/fifomem/_347_
*1298 u_async_fifo/fifomem/_348_
*1299 u_async_fifo/fifomem/_349_
*1300 u_async_fifo/fifomem/_350_
*1301 u_async_fifo/fifomem/_351_
*1302 u_async_fifo/fifomem/_352_
*1303 u_async_fifo/fifomem/_353_
*1304 u_async_fifo/fifomem/_354_
*1305 u_async_fifo/fifomem/_355_
*1306 u_async_fifo/fifomem/_356_
*1307 u_async_fifo/fifomem/_357_
*1308 u_async_fifo/fifomem/_358_
*1309 u_async_fifo/fifomem/_359_
*1310 u_async_fifo/fifomem/_360_
*1311 u_async_fifo/fifomem/_361_
*1312 u_async_fifo/fifomem/_362_
*1313 u_async_fifo/fifomem/_363_
*1314 u_async_fifo/fifomem/_364_
*1315 u_async_fifo/fifomem/_365_
*1316 u_async_fifo/fifomem/_366_
*1317 u_async_fifo/fifomem/_367_
*1318 u_async_fifo/fifomem/_368_
*1319 u_async_fifo/fifomem/_369_
*1320 u_async_fifo/fifomem/_370_
*1321 u_async_fifo/fifomem/_371_
*1322 u_async_fifo/fifomem/_372_
*1323 u_async_fifo/fifomem/_373_
*1324 u_async_fifo/fifomem/_374_
*1325 u_async_fifo/fifomem/_375_
*1326 u_async_fifo/fifomem/_376_
*1327 u_async_fifo/fifomem/_377_
*1328 u_async_fifo/fifomem/_378_
*1329 u_async_fifo/fifomem/_379_
*1330 u_async_fifo/fifomem/_380_
*1331 u_async_fifo/fifomem/_381_
*1332 u_async_fifo/fifomem/_382_
*1333 u_async_fifo/fifomem/_383_
*1334 u_async_fifo/fifomem/_384_
*1335 u_async_fifo/fifomem/_385_
*1336 u_async_fifo/fifomem/_386_
*1337 u_async_fifo/fifomem/_387_
*1338 u_async_fifo/fifomem/_388_
*1339 u_async_fifo/fifomem/_389_
*1340 u_async_fifo/fifomem/_390_
*1341 u_async_fifo/fifomem/_391_
*1342 u_async_fifo/fifomem/_392_
*1343 u_async_fifo/fifomem/_393_
*1344 u_async_fifo/fifomem/_394_
*1345 u_async_fifo/fifomem/_395_
*1346 u_async_fifo/fifomem/_396_
*1347 u_async_fifo/fifomem/_397_
*1348 u_async_fifo/fifomem/_398_
*1349 u_async_fifo/fifomem/_399_
*1350 u_async_fifo/fifomem/_400_
*1351 u_async_fifo/fifomem/_401_
*1352 u_async_fifo/fifomem/_402_
*1353 u_async_fifo/fifomem/_403_
*1354 u_async_fifo/fifomem/_404_
*1355 u_async_fifo/fifomem/_405_
*1356 u_async_fifo/fifomem/_406_
*1357 u_async_fifo/fifomem/_407_
*1358 u_async_fifo/fifomem/_408_
*1359 u_async_fifo/fifomem/_409_
*1360 u_async_fifo/fifomem/_410_
*1361 u_async_fifo/fifomem/_411_
*1362 u_async_fifo/fifomem/_412_
*1363 u_async_fifo/fifomem/_413_
*1364 u_async_fifo/fifomem/_414_
*1365 u_async_fifo/fifomem/_415_
*1366 u_async_fifo/fifomem/_416_
*1367 u_async_fifo/fifomem/_417_
*1368 u_async_fifo/fifomem/_418_
*1369 u_async_fifo/fifomem/_419_
*1370 u_async_fifo/fifomem/_420_
*1371 u_async_fifo/fifomem/_421_
*1372 u_async_fifo/fifomem/_422_
*1373 u_async_fifo/fifomem/_423_
*1374 u_async_fifo/fifomem/_424_
*1375 u_async_fifo/fifomem/_425_
*1376 u_async_fifo/fifomem/_426_
*1377 u_async_fifo/fifomem/_427_
*1378 u_async_fifo/fifomem/_428_
*1379 u_async_fifo/fifomem/_429_
*1380 u_async_fifo/fifomem/_430_
*1381 u_async_fifo/fifomem/_431_
*1382 u_async_fifo/fifomem/_432_
*1383 u_async_fifo/fifomem/_433_
*1384 u_async_fifo/fifomem/_434_
*1385 u_async_fifo/fifomem/_435_
*1386 u_async_fifo/fifomem/_436_
*1387 u_async_fifo/fifomem/_437_
*1388 u_async_fifo/fifomem/_438_
*1389 u_async_fifo/fifomem/_439_
*1390 u_async_fifo/fifomem/_440_
*1391 u_async_fifo/fifomem/_441_
*1392 u_async_fifo/fifomem/_442_
*1393 u_async_fifo/fifomem/_443_
*1394 u_async_fifo/fifomem/_444_
*1395 u_async_fifo/fifomem/_445_
*1396 u_async_fifo/fifomem/_446_
*1397 u_async_fifo/fifomem/_447_
*1398 u_async_fifo/fifomem/_448_
*1399 u_async_fifo/fifomem/_449_
*1400 u_async_fifo/fifomem/_450_
*1401 u_async_fifo/fifomem/_451_
*1402 u_async_fifo/fifomem/_452_
*1403 u_async_fifo/fifomem/_453_
*1404 u_async_fifo/fifomem/_454_
*1405 u_async_fifo/fifomem/_455_
*1406 u_async_fifo/fifomem/_456_
*1407 u_async_fifo/fifomem/_457_
*1408 u_async_fifo/fifomem/_458_
*1409 u_async_fifo/fifomem/_459_
*1410 u_async_fifo/fifomem/_460_
*1411 u_async_fifo/fifomem/_461_
*1412 u_async_fifo/fifomem/_462_
*1413 u_async_fifo/fifomem/_463_
*1414 u_async_fifo/fifomem/_464_
*1415 u_async_fifo/fifomem/_465_
*1416 u_async_fifo/fifomem/_466_
*1417 u_async_fifo/fifomem/_467_
*1418 u_async_fifo/fifomem/_468_
*1419 u_async_fifo/fifomem/_469_
*1420 u_async_fifo/fifomem/_470_
*1421 u_async_fifo/fifomem/_471_
*1422 u_async_fifo/fifomem/_472_
*1423 u_async_fifo/fifomem/_473_
*1424 u_async_fifo/fifomem/_474_
*1425 u_async_fifo/fifomem/_475_
*1426 u_async_fifo/fifomem/_476_
*1427 u_async_fifo/fifomem/_477_
*1428 u_async_fifo/fifomem/_478_
*1429 u_async_fifo/fifomem/_479_
*1430 u_async_fifo/fifomem/_480_
*1431 u_async_fifo/fifomem/_481_
*1432 u_async_fifo/fifomem/_482_
*1433 u_async_fifo/fifomem/_483_
*1434 u_async_fifo/fifomem/_484_
*1435 u_async_fifo/fifomem/_485_
*1436 u_async_fifo/fifomem/_486_
*1437 u_async_fifo/fifomem/_487_
*1438 u_async_fifo/fifomem/_488_
*1439 u_async_fifo/fifomem/_489_
*1440 u_async_fifo/fifomem/_490_
*1441 u_async_fifo/fifomem/_491_
*1442 u_async_fifo/fifomem/_492_
*1443 u_async_fifo/fifomem/_493_
*1444 u_async_fifo/fifomem/_494_
*1445 u_async_fifo/fifomem/_495_
*1446 u_async_fifo/fifomem/_496_
*1447 u_async_fifo/fifomem/_497_
*1448 u_async_fifo/fifomem/_498_
*1449 u_async_fifo/fifomem/_499_
*1450 u_async_fifo/fifomem/_500_
*1451 u_async_fifo/fifomem/_501_
*1452 u_async_fifo/fifomem/_502_
*1453 u_async_fifo/fifomem/_503_
*1454 u_async_fifo/fifomem/_504_
*1455 u_async_fifo/fifomem/_505_
*1456 u_async_fifo/rptr_empty/_14_
*1457 u_async_fifo/rptr_empty/_15_
*1458 u_async_fifo/rptr_empty/_16_
*1459 u_async_fifo/rptr_empty/_17_
*1460 u_async_fifo/rptr_empty/_18_
*1461 u_async_fifo/rptr_empty/_19_
*1462 u_async_fifo/rptr_empty/_20_
*1463 u_async_fifo/rptr_empty/_21_
*1464 u_async_fifo/rptr_empty/_22_
*1465 u_async_fifo/rptr_empty/_23_
*1466 u_async_fifo/rptr_empty/_24_
*1467 u_async_fifo/rptr_empty/_25_
*1468 u_async_fifo/rptr_empty/_26_
*1469 u_async_fifo/rptr_empty/_27_
*1470 u_async_fifo/rptr_empty/_28_
*1471 u_async_fifo/rptr_empty/_29_
*1472 u_async_fifo/rptr_empty/_30_
*1473 u_async_fifo/rptr_empty/_31_
*1474 u_async_fifo/rptr_empty/_32_
*1475 u_async_fifo/rptr_empty/_33_
*1476 u_async_fifo/rptr_empty/_34_
*1477 u_async_fifo/rptr_empty/_35_
*1478 u_async_fifo/rptr_empty/_36_
*1479 u_async_fifo/rptr_empty/_37_
*1480 u_async_fifo/rptr_empty/_38_
*1481 u_async_fifo/rptr_empty/_39_
*1482 u_async_fifo/rptr_empty/_40_
*1483 u_async_fifo/rptr_empty/_41_
*1484 u_async_fifo/rptr_empty/_42_
*1485 u_async_fifo/rptr_empty/_43_
*1486 u_async_fifo/rptr_empty/_44_
*1487 u_async_fifo/rptr_empty/_45_
*1488 u_async_fifo/rptr_empty/_46_
*1489 u_async_fifo/rptr_empty/_47_
*1490 u_async_fifo/sync_r2w/_0_
*1491 u_async_fifo/sync_r2w/_1_
*1492 u_async_fifo/sync_r2w/_2_
*1493 u_async_fifo/sync_r2w/_3_
*1494 u_async_fifo/sync_r2w/_4_
*1495 u_async_fifo/sync_r2w/_5_
*1496 u_async_fifo/sync_r2w/_6_
*1497 u_async_fifo/sync_r2w/_7_
*1498 u_async_fifo/sync_r2w/_8_
*1499 u_async_fifo/sync_r2w/_9_
*1500 u_async_fifo/sync_w2r/_0_
*1501 u_async_fifo/sync_w2r/_1_
*1502 u_async_fifo/sync_w2r/_2_
*1503 u_async_fifo/sync_w2r/_3_
*1504 u_async_fifo/sync_w2r/_4_
*1505 u_async_fifo/sync_w2r/_5_
*1506 u_async_fifo/sync_w2r/_6_
*1507 u_async_fifo/sync_w2r/_7_
*1508 u_async_fifo/sync_w2r/_8_
*1509 u_async_fifo/sync_w2r/_9_
*1510 u_async_fifo/wptr_full/_14_
*1511 u_async_fifo/wptr_full/_15_
*1512 u_async_fifo/wptr_full/_16_
*1513 u_async_fifo/wptr_full/_17_
*1514 u_async_fifo/wptr_full/_18_
*1515 u_async_fifo/wptr_full/_19_
*1516 u_async_fifo/wptr_full/_20_
*1517 u_async_fifo/wptr_full/_21_
*1518 u_async_fifo/wptr_full/_22_
*1519 u_async_fifo/wptr_full/_23_
*1520 u_async_fifo/wptr_full/_24_
*1521 u_async_fifo/wptr_full/_25_
*1522 u_async_fifo/wptr_full/_26_
*1523 u_async_fifo/wptr_full/_27_
*1524 u_async_fifo/wptr_full/_28_
*1525 u_async_fifo/wptr_full/_29_
*1526 u_async_fifo/wptr_full/_30_
*1527 u_async_fifo/wptr_full/_31_
*1528 u_async_fifo/wptr_full/_32_
*1529 u_async_fifo/wptr_full/_33_
*1530 u_async_fifo/wptr_full/_34_
*1531 u_async_fifo/wptr_full/_35_
*1532 u_async_fifo/wptr_full/_36_
*1533 u_async_fifo/wptr_full/_37_
*1534 u_async_fifo/wptr_full/_38_
*1535 u_async_fifo/wptr_full/_39_
*1536 u_async_fifo/wptr_full/_40_
*1537 u_async_fifo/wptr_full/_41_
*1538 u_async_fifo/wptr_full/_42_
*1539 u_async_fifo/wptr_full/_43_
*1540 u_async_fifo/wptr_full/_44_
*1541 u_async_fifo/wptr_full/_45_
*1542 u_async_fifo/wptr_full/_46_
*1543 u_async_fifo/wptr_full/_47_
*1544 u_axi_slave/_097_
*1545 u_axi_slave/_098_
*1546 u_axi_slave/_099_
*1547 u_axi_slave/_100_
*1548 u_axi_slave/_101_
*1549 u_axi_slave/_102_
*1550 u_axi_slave/_103_
*1551 u_axi_slave/_104_
*1552 u_axi_slave/_105_
*1553 u_axi_slave/_106_
*1554 u_axi_slave/_107_
*1555 u_axi_slave/_108_
*1556 u_axi_slave/_109_
*1557 u_axi_slave/_110_
*1558 u_axi_slave/_111_
*1559 u_axi_slave/_112_
*1560 u_axi_slave/_113_
*1561 u_axi_slave/_114_
*1562 u_axi_slave/_115_
*1563 u_axi_slave/_116_
*1564 u_axi_slave/_117_
*1565 u_axi_slave/_118_
*1566 u_axi_slave/_119_
*1567 u_axi_slave/_120_
*1568 u_axi_slave/_121_
*1569 u_axi_slave/_122_
*1570 u_axi_slave/_123_
*1571 u_axi_slave/_124_
*1572 u_axi_slave/_125_
*1573 u_axi_slave/_126_
*1574 u_axi_slave/_127_
*1575 u_axi_slave/_128_
*1576 u_axi_slave/_129_
*1577 u_axi_slave/_130_
*1578 u_axi_slave/_131_
*1579 u_axi_slave/_132_
*1580 u_axi_slave/_133_
*1581 u_axi_slave/_134_
*1582 u_axi_slave/_135_
*1583 u_axi_slave/_136_
*1584 u_axi_slave/_137_
*1585 u_axi_slave/_138_
*1586 u_axi_slave/_139_
*1587 u_axi_slave/_140_
*1588 u_axi_slave/_141_
*1589 u_axi_slave/_142_
*1590 u_axi_slave/_143_
*1591 u_axi_slave/_144_
*1592 u_axi_slave/_145_
*1593 u_axi_slave/_146_
*1594 u_axi_slave/_147_
*1595 u_axi_slave/_148_
*1596 u_axi_slave/_149_
*1597 u_axi_slave/_150_
*1598 u_axi_slave/_151_
*1599 u_axi_slave/_152_
*1600 u_axi_slave/_153_
*1601 u_axi_slave/_154_
*1602 u_axi_slave/_155_
*1603 u_axi_slave/_156_
*1604 u_axi_slave/_157_
*1605 u_axi_slave/_158_
*1606 u_axi_slave/_159_
*1607 u_axi_slave/_160_
*1608 u_axi_slave/_161_
*1609 u_axi_slave/_162_
*1610 u_axi_slave/_163_
*1611 u_axi_slave/_164_
*1612 u_axi_slave/_165_
*1613 u_axi_slave/_166_
*1614 u_axi_slave/_167_
*1615 u_axi_slave/_168_
*1616 u_axi_slave/_169_
*1617 u_axi_slave/_170_
*1618 u_axi_slave/_171_
*1619 u_axi_slave/_172_
*1620 u_axi_slave/_173_
*1621 u_axi_slave/_174_
*1622 u_axi_slave/_175_
*1623 u_axi_slave/_176_
*1624 u_axi_slave/_177_
*1625 u_axi_slave/_178_
*1626 u_axi_slave/_179_
*1627 u_axi_slave/_180_
*1628 u_axi_slave/_181_
*1629 u_axi_slave/_182_
*1630 u_axi_slave/_183_
*1631 u_axi_slave/_184_
*1632 u_axi_slave/_185_
*1633 u_axi_slave/_186_
*1634 u_axi_slave/_187_
*1635 u_axi_slave/_188_
*1636 u_axi_slave/_189_
*1637 u_axi_slave/_190_
*1638 u_axi_slave/_191_
*1639 u_axi_slave/_192_
*1640 u_axi_slave/_193_
*1641 u_axi_slave/_194_
*1642 u_axi_slave/_195_
*1643 u_axi_slave/_196_
*1644 u_axi_slave/_197_
*1645 u_axi_slave/_198_
*1646 u_axi_slave/_199_
*1647 u_axi_slave/_200_
*1648 u_axi_slave/_201_
*1649 u_axi_slave/_202_
*1650 u_axi_slave/_203_
*1651 u_axi_slave/_204_
*1652 u_axi_slave/_205_
*1653 u_axi_slave/_206_
*1654 u_axi_slave/_207_
*1655 u_axi_slave/_208_
*1656 u_axi_slave/_209_
*1657 u_axi_slave/_210_
*1658 u_axi_slave/_211_
*1659 u_axi_slave/_212_
*1660 u_axi_slave/_213_
*1661 u_axi_slave/_214_
*1662 u_axi_slave/_215_
*1663 u_axi_slave/_216_
*1664 u_axi_slave/_217_
*1665 u_axi_slave/_218_
*1666 u_axi_slave/_219_
*1667 u_axi_slave/_220_
*1668 u_axi_slave/_221_
*1669 u_axi_slave/_222_
*1670 u_axi_slave/_223_
*1671 u_axi_slave/_224_
*1672 u_axi_slave/_225_
*1673 u_axi_slave/_226_
*1674 u_axi_slave/_227_
*1675 u_axi_slave/_228_
*1676 u_axi_slave/_229_
*1677 u_axi_slave/_230_
*1678 u_axi_slave/_231_
*1679 u_axi_slave/_232_
*1680 u_axi_slave/_233_
*1681 u_axi_slave/_234_
*1682 u_axi_slave/_235_
*1683 u_axi_slave/_236_
*1684 u_axi_slave/_237_
*1685 u_axi_slave/_238_
*1686 u_axi_slave/_239_
*1687 u_axi_slave/_240_
*1688 u_axi_slave/_241_
*1689 u_axi_slave/_242_
*1690 u_axi_slave/_243_
*1691 u_axi_slave/_244_
*1692 u_uart_tx/_068_
*1693 u_uart_tx/_069_
*1694 u_uart_tx/_070_
*1695 u_uart_tx/_071_
*1696 u_uart_tx/_072_
*1697 u_uart_tx/_073_
*1698 u_uart_tx/_074_
*1699 u_uart_tx/_075_
*1700 u_uart_tx/_076_
*1701 u_uart_tx/_077_
*1702 u_uart_tx/_078_
*1703 u_uart_tx/_079_
*1704 u_uart_tx/_080_
*1705 u_uart_tx/_081_
*1706 u_uart_tx/_082_
*1707 u_uart_tx/_083_
*1708 u_uart_tx/_084_
*1709 u_uart_tx/_085_
*1710 u_uart_tx/_086_
*1711 u_uart_tx/_087_
*1712 u_uart_tx/_088_
*1713 u_uart_tx/_089_
*1714 u_uart_tx/_090_
*1715 u_uart_tx/_091_
*1716 u_uart_tx/_092_
*1717 u_uart_tx/_093_
*1718 u_uart_tx/_094_
*1719 u_uart_tx/_095_
*1720 u_uart_tx/_096_
*1721 u_uart_tx/_097_
*1722 u_uart_tx/_098_
*1723 u_uart_tx/_099_
*1724 u_uart_tx/_100_
*1725 u_uart_tx/_101_
*1726 u_uart_tx/_102_
*1727 u_uart_tx/_103_
*1728 u_uart_tx/_104_
*1729 u_uart_tx/_105_
*1730 u_uart_tx/_106_
*1731 u_uart_tx/_107_
*1732 u_uart_tx/_108_
*1733 u_uart_tx/_109_
*1734 u_uart_tx/_110_
*1735 u_uart_tx/_111_
*1736 u_uart_tx/_112_
*1737 u_uart_tx/_113_
*1738 u_uart_tx/_114_
*1739 u_uart_tx/_115_
*1740 u_uart_tx/_116_
*1741 u_uart_tx/_117_
*1742 u_uart_tx/_118_
*1743 u_uart_tx/_119_
*1744 u_uart_tx/_120_
*1745 u_uart_tx/_121_
*1746 u_uart_tx/_122_
*1747 u_uart_tx/_123_
*1748 u_uart_tx/_124_
*1749 u_uart_tx/_125_
*1750 u_uart_tx/_126_
*1751 u_uart_tx/_127_
*1752 u_uart_tx/_128_
*1753 u_uart_tx/_129_
*1754 u_uart_tx/_130_
*1755 u_uart_tx/_131_
*1756 u_uart_tx/_132_
*1757 u_uart_tx/_133_
*1758 u_uart_tx/_134_
*1759 u_uart_tx/_135_
*1760 u_uart_tx/_136_
*1761 u_uart_tx/_137_
*1762 u_uart_tx/_138_
*1763 u_uart_tx/_139_
*1764 u_uart_tx/_140_
*1765 u_uart_tx/_141_
*1766 u_uart_tx/_142_
*1767 u_uart_tx/_143_
*1768 u_uart_tx/_144_
*1769 u_uart_tx/_145_
*1770 u_uart_tx/_146_
*1771 u_uart_tx/_147_
*1772 u_uart_tx/_148_
*1773 u_uart_tx/_149_
*1774 u_uart_tx/_150_
*1775 u_uart_tx/_151_
*1776 u_uart_tx/_152_
*1777 u_uart_tx/_153_
*1778 u_uart_tx/_154_
*1779 u_uart_tx/_155_
*1780 u_uart_tx/_156_
*1781 u_uart_tx/_157_
*1782 u_uart_tx/_158_
*1783 u_uart_tx/_159_
*1784 u_uart_tx/_160_
*1785 u_uart_tx/_161_
*1786 u_uart_tx/_162_
*1787 u_uart_tx/_163_
*1788 u_uart_tx/_164_
*1789 u_uart_tx/_165_
*1790 u_uart_tx/_166_
*1791 u_uart_tx/_167_
*1792 u_uart_tx/_168_

*PORTS
s_axi_aclk I
s_axi_aresetn I
s_axi_awaddr[0] I
s_axi_awaddr[1] I
s_axi_awaddr[2] I
s_axi_awaddr[3] I
s_axi_awready O
s_axi_awvalid I
s_axi_bready I
s_axi_bresp[0] O
s_axi_bresp[1] O
s_axi_bvalid O
s_axi_wdata[0] I
s_axi_wdata[10] I
s_axi_wdata[11] I
s_axi_wdata[12] I
s_axi_wdata[13] I
s_axi_wdata[14] I
s_axi_wdata[15] I
s_axi_wdata[16] I
s_axi_wdata[17] I
s_axi_wdata[18] I
s_axi_wdata[19] I
s_axi_wdata[1] I
s_axi_wdata[20] I
s_axi_wdata[21] I
s_axi_wdata[22] I
s_axi_wdata[23] I
s_axi_wdata[24] I
s_axi_wdata[25] I
s_axi_wdata[26] I
s_axi_wdata[27] I
s_axi_wdata[28] I
s_axi_wdata[29] I
s_axi_wdata[2] I
s_axi_wdata[30] I
s_axi_wdata[31] I
s_axi_wdata[3] I
s_axi_wdata[4] I
s_axi_wdata[5] I
s_axi_wdata[6] I
s_axi_wdata[7] I
s_axi_wdata[8] I
s_axi_wdata[9] I
s_axi_wready O
s_axi_wstrb[0] I
s_axi_wstrb[1] I
s_axi_wstrb[2] I
s_axi_wstrb[3] I
s_axi_wvalid I
uart_clk I
uart_rst_n I
uart_tx_out O

*D_NET *1 0.0166791
*CONN
*P s_axi_aclk I
*I *1107:A I *D sky130_fd_sc_hd__clkbuf_16
*CAP
1 s_axi_aclk 0.00534311
2 *1107:A 0
3 *1:21 0.00534311
4 *1:21 *1311:A0 4.5534e-05
5 *1:21 *1547:A 0.000403593
6 *1:21 *1562:B 2.70703e-05
7 *1:21 *1565:A2 0.000180683
8 *1:21 *1656:RESET_B 6.70123e-05
9 *1:21 *8:13 0.000265648
10 *1:21 *44:23 9.70284e-05
11 *1:21 *49:19 9.22174e-05
12 *1:21 *68:216 0.00180887
13 *1:21 *68:250 0
14 *1:21 *105:16 0.000107879
15 *1:21 *110:16 2.69614e-05
16 *1:21 *313:25 0.000356597
17 *1:21 *442:74 0
18 *1:21 *443:30 0.00187484
19 *1:21 *444:34 0.000182331
20 *1:21 *580:74 0.000222885
21 *1:21 *609:28 0.000132328
22 *1:21 *618:14 0.000101416
*RES
1 s_axi_aclk *1:21 47.7176 
2 *1:21 *1107:A 13.8 
*END

*D_NET *2 0.0624723
*CONN
*P s_axi_aresetn I
*I *1684:RESET_B I *D sky130_fd_sc_hd__dfrtp_1
*I *1672:RESET_B I *D sky130_fd_sc_hd__dfrtp_1
*I *1664:RESET_B I *D sky130_fd_sc_hd__dfrtp_1
*I *1669:RESET_B I *D sky130_fd_sc_hd__dfrtp_1
*I *1650:RESET_B I *D sky130_fd_sc_hd__dfrtp_1
*I *1690:RESET_B I *D sky130_fd_sc_hd__dfrtp_1
*I *1691:RESET_B I *D sky130_fd_sc_hd__dfrtp_1
*I *1689:RESET_B I *D sky130_fd_sc_hd__dfrtp_1
*I *1685:RESET_B I *D sky130_fd_sc_hd__dfrtp_1
*I *1682:RESET_B I *D sky130_fd_sc_hd__dfrtp_1
*I *1673:RESET_B I *D sky130_fd_sc_hd__dfrtp_1
*I *1658:RESET_B I *D sky130_fd_sc_hd__dfrtp_1
*I *1647:RESET_B I *D sky130_fd_sc_hd__dfrtp_1
*I *1674:RESET_B I *D sky130_fd_sc_hd__dfrtp_1
*I *1666:RESET_B I *D sky130_fd_sc_hd__dfrtp_1
*I *1498:RESET_B I *D sky130_fd_sc_hd__dfrtp_1
*I *1493:RESET_B I *D sky130_fd_sc_hd__dfrtp_1
*I *1538:RESET_B I *D sky130_fd_sc_hd__dfrtp_1
*I *1688:RESET_B I *D sky130_fd_sc_hd__dfrtp_1
*I *1680:RESET_B I *D sky130_fd_sc_hd__dfrtp_1
*I *1663:RESET_B I *D sky130_fd_sc_hd__dfrtp_1
*I *1665:RESET_B I *D sky130_fd_sc_hd__dfrtp_1
*I *1656:RESET_B I *D sky130_fd_sc_hd__dfrtp_1
*I *1657:RESET_B I *D sky130_fd_sc_hd__dfrtp_1
*I *1645:RESET_B I *D sky130_fd_sc_hd__dfrtp_1
*I *1679:RESET_B I *D sky130_fd_sc_hd__dfrtp_1
*I *1494:RESET_B I *D sky130_fd_sc_hd__dfrtp_1
*I *1499:RESET_B I *D sky130_fd_sc_hd__dfrtp_1
*I *1539:RESET_B I *D sky130_fd_sc_hd__dfrtp_1
*I *1491:RESET_B I *D sky130_fd_sc_hd__dfrtp_1
*I *1536:RESET_B I *D sky130_fd_sc_hd__dfrtp_1
*I *1496:RESET_B I *D sky130_fd_sc_hd__dfrtp_1
*I *1543:RESET_B I *D sky130_fd_sc_hd__dfrtp_1
*I *1497:RESET_B I *D sky130_fd_sc_hd__dfrtp_1
*I *1537:RESET_B I *D sky130_fd_sc_hd__dfrtp_1
*I *1542:RESET_B I *D sky130_fd_sc_hd__dfrtp_1
*I *1490:RESET_B I *D sky130_fd_sc_hd__dfrtp_1
*I *1535:RESET_B I *D sky130_fd_sc_hd__dfrtp_1
*I *1495:RESET_B I *D sky130_fd_sc_hd__dfrtp_1
*I *1540:RESET_B I *D sky130_fd_sc_hd__dfrtp_1
*I *1541:RESET_B I *D sky130_fd_sc_hd__dfrtp_1
*I *1492:RESET_B I *D sky130_fd_sc_hd__dfrtp_1
*I *1534:RESET_B I *D sky130_fd_sc_hd__dfrtp_1
*I *1654:RESET_B I *D sky130_fd_sc_hd__dfrtp_1
*I *1681:RESET_B I *D sky130_fd_sc_hd__dfrtp_1
*I *1676:RESET_B I *D sky130_fd_sc_hd__dfrtp_1
*I *1646:RESET_B I *D sky130_fd_sc_hd__dfrtp_1
*I *1655:RESET_B I *D sky130_fd_sc_hd__dfrtp_1
*I *1653:RESET_B I *D sky130_fd_sc_hd__dfrtp_1
*I *1643:RESET_B I *D sky130_fd_sc_hd__dfrtp_1
*I *1644:RESET_B I *D sky130_fd_sc_hd__dfrtp_1
*I *1648:RESET_B I *D sky130_fd_sc_hd__dfrtp_1
*I *1686:RESET_B I *D sky130_fd_sc_hd__dfrtp_1
*I *1683:RESET_B I *D sky130_fd_sc_hd__dfrtp_1
*I *1670:RESET_B I *D sky130_fd_sc_hd__dfrtp_1
*I *1652:RESET_B I *D sky130_fd_sc_hd__dfrtp_1
*I *1649:RESET_B I *D sky130_fd_sc_hd__dfrtp_1
*I *1659:RESET_B I *D sky130_fd_sc_hd__dfrtp_1
*I *1675:RESET_B I *D sky130_fd_sc_hd__dfrtp_1
*I *1662:RESET_B I *D sky130_fd_sc_hd__dfrtp_1
*I *1678:RESET_B I *D sky130_fd_sc_hd__dfrtp_1
*I *1667:RESET_B I *D sky130_fd_sc_hd__dfrtp_1
*I *1687:RESET_B I *D sky130_fd_sc_hd__dfrtp_1
*I *1671:RESET_B I *D sky130_fd_sc_hd__dfrtp_1
*I *1651:RESET_B I *D sky130_fd_sc_hd__dfrtp_1
*I *1661:RESET_B I *D sky130_fd_sc_hd__dfrtp_1
*I *1677:RESET_B I *D sky130_fd_sc_hd__dfrtp_1
*I *1668:RESET_B I *D sky130_fd_sc_hd__dfrtp_1
*I *1660:RESET_B I *D sky130_fd_sc_hd__dfrtp_1
*CAP
1 s_axi_aresetn 0.000297477
2 *1684:RESET_B 0.000487832
3 *1672:RESET_B 3.66992e-05
4 *1664:RESET_B 0
5 *1669:RESET_B 5.44402e-05
6 *1650:RESET_B 3.46943e-05
7 *1690:RESET_B 0.000178194
8 *1691:RESET_B 5.25327e-05
9 *1689:RESET_B 6.23229e-05
10 *1685:RESET_B 0.00040464
11 *1682:RESET_B 0.0005262
12 *1673:RESET_B 1.96233e-05
13 *1658:RESET_B 0.000173864
14 *1647:RESET_B 1.9043e-05
15 *1674:RESET_B 0.000134576
16 *1666:RESET_B 4.138e-05
17 *1498:RESET_B 0.000187767
18 *1493:RESET_B 0
19 *1538:RESET_B 4.32632e-05
20 *1688:RESET_B 0.000182969
21 *1680:RESET_B 0.000136176
22 *1663:RESET_B 3.09381e-05
23 *1665:RESET_B 0.000241767
24 *1656:RESET_B 0.000282472
25 *1657:RESET_B 0.000225478
26 *1645:RESET_B 5.03771e-05
27 *1679:RESET_B 0.000554828
28 *1494:RESET_B 0
29 *1499:RESET_B 0
30 *1539:RESET_B 0
31 *1491:RESET_B 0
32 *1536:RESET_B 7.22385e-05
33 *1496:RESET_B 7.16326e-05
34 *1543:RESET_B 7.12349e-05
35 *1497:RESET_B 0
36 *1537:RESET_B 0
37 *1542:RESET_B 0.00036642
38 *1490:RESET_B 5.38877e-05
39 *1535:RESET_B 0
40 *1495:RESET_B 0.000122247
41 *1540:RESET_B 7.43601e-05
42 *1541:RESET_B 0.000115083
43 *1492:RESET_B 0.000603838
44 *1534:RESET_B 1.31618e-05
45 *1654:RESET_B 0.000551231
46 *1681:RESET_B 0.000152838
47 *1676:RESET_B 0.000396863
48 *1646:RESET_B 0.00071405
49 *1655:RESET_B 0
50 *1653:RESET_B 0
51 *1643:RESET_B 0.000100145
52 *1644:RESET_B 0.000105091
53 *1648:RESET_B 2.89265e-05
54 *1686:RESET_B 0
55 *1683:RESET_B 0
56 *1670:RESET_B 0
57 *1652:RESET_B 0.0002731
58 *1649:RESET_B 0.000399549
59 *1659:RESET_B 0.000532946
60 *1675:RESET_B 0
61 *1662:RESET_B 1.55663e-05
62 *1678:RESET_B 9.08568e-05
63 *1667:RESET_B 1.53218e-05
64 *1687:RESET_B 2.48814e-05
65 *1671:RESET_B 0
66 *1651:RESET_B 0.000220781
67 *1661:RESET_B 0.000128673
68 *1677:RESET_B 2.44999e-05
69 *1668:RESET_B 4.28262e-05
70 *1660:RESET_B 0.000641454
71 *2:754 0.000524531
72 *2:716 0.000388639
73 *2:702 0.000367752
74 *2:670 0.000348452
75 *2:656 0.000848295
76 *2:623 0.000345788
77 *2:600 0.000309226
78 *2:572 0.000351312
79 *2:534 0.000215711
80 *2:532 0.000124562
81 *2:523 0.000296918
82 *2:502 0.000443946
83 *2:500 0.000151676
84 *2:493 9.91259e-05
85 *2:486 0.000120984
86 *2:479 0.000178737
87 *2:460 0.000143871
88 *2:413 0.000262975
89 *2:411 0.000194615
90 *2:392 0.00062547
91 *2:384 0.000899494
92 *2:378 0.000925269
93 *2:376 0.000220352
94 *2:374 0.00019467
95 *2:372 0.000508519
96 *2:355 0.000390092
97 *2:351 0.000179264
98 *2:349 0.000191123
99 *2:339 0.000519192
100 *2:278 0.000567893
101 *2:276 0.00036502
102 *2:269 0.000318585
103 *2:244 0.000317534
104 *2:242 0.000134735
105 *2:240 0.00139156
106 *2:201 0.000581105
107 *2:191 0.000361265
108 *2:189 0.00016135
109 *2:187 0.000149959
110 *2:185 0.00152028
111 *2:181 0.000471285
112 *2:134 0.000276501
113 *2:120 0.000794987
114 *2:89 0.000273779
115 *2:87 0.000817029
116 *2:83 0.000256697
117 *2:81 0.000277655
118 *2:79 0.000559718
119 *2:75 0.0010189
120 *2:73 0.000354456
121 *2:69 0.000267123
122 *2:65 0.000187215
123 *2:63 0.000210352
124 *2:36 0.000430536
125 *2:22 0.000560909
126 *1490:RESET_B *82:90 0
127 *1490:RESET_B *82:92 0
128 *1490:RESET_B *674:12 5.66647e-05
129 *1492:RESET_B *1532:A 4.89081e-05
130 *1492:RESET_B *1532:D 0
131 *1492:RESET_B *674:12 0.000283112
132 *1495:RESET_B *1495:CLK 0
133 *1495:RESET_B *82:92 0
134 *1495:RESET_B *471:18 0
135 *1495:RESET_B *674:12 0.000140321
136 *1496:RESET_B *1496:D 0.000352304
137 *1496:RESET_B *1528:A 0
138 *1496:RESET_B *1536:CLK 0.000101445
139 *1496:RESET_B *1536:D 6.36254e-05
140 *1498:RESET_B *1493:D 0
141 *1498:RESET_B *1498:CLK 0
142 *1498:RESET_B *1508:RESET_B 5.66647e-05
143 *1498:RESET_B *1770:D 0
144 *1498:RESET_B *1770:SET_B 9.89637e-05
145 *1498:RESET_B *674:12 0.000106912
146 *1534:RESET_B *1521:B 2.51837e-05
147 *1534:RESET_B *112:10 4.85567e-05
148 *1536:RESET_B *1496:D 0.000164622
149 *1536:RESET_B *1528:A 0
150 *1538:RESET_B *1494:D 0
151 *1538:RESET_B *1529:B 4.50774e-05
152 *1540:RESET_B *1540:D 0.000107667
153 *1540:RESET_B *94:28 0
154 *1540:RESET_B *445:60 2.77173e-05
155 *1540:RESET_B *491:12 5.66157e-05
156 *1540:RESET_B *491:18 0
157 *1540:RESET_B *491:28 0
158 *1540:RESET_B *513:23 9.71197e-05
159 *1541:RESET_B *94:28 0
160 *1541:RESET_B *491:12 0.000105682
161 *1542:RESET_B *1505:CLK 0
162 *1542:RESET_B *1510:A 5.33334e-05
163 *1542:RESET_B *1537:D 0
164 *1542:RESET_B *492:6 5.33433e-05
165 *1542:RESET_B *492:18 2.29097e-05
166 *1542:RESET_B *499:10 0.000262184
167 *1543:RESET_B *1517:A 0.000239969
168 *1543:RESET_B *1517:B 6.33073e-05
169 *1543:RESET_B *1522:B 0
170 *1543:RESET_B *493:14 0.000136182
171 *1643:RESET_B *1554:B1 0
172 *1643:RESET_B *625:10 2.55587e-05
173 *1643:RESET_B *626:10 5.50517e-05
174 *1644:RESET_B *1518:B1 0
175 *1644:RESET_B *113:33 0.000128868
176 *1644:RESET_B *492:28 0
177 *1644:RESET_B *492:130 0
178 *1644:RESET_B *626:10 8.94203e-05
179 *1645:RESET_B *1562:A 0.000133515
180 *1645:RESET_B *1596:B2 1.0334e-05
181 *1646:RESET_B *1548:B 9.71197e-05
182 *1646:RESET_B *1566:B 1.07719e-05
183 *1646:RESET_B *105:8 2.15245e-05
184 *1646:RESET_B *112:10 0.000304394
185 *1646:RESET_B *112:18 0
186 *1646:RESET_B *625:183 0
187 *1647:RESET_B *106:6 4.96155e-05
188 *1647:RESET_B *581:83 9.23695e-05
189 *1648:RESET_B *616:12 0
190 *1648:RESET_B *625:55 4.60059e-06
191 *1649:RESET_B *1579:A1 0
192 *1649:RESET_B *1579:B1 0
193 *1649:RESET_B *1579:B2 1.88214e-05
194 *1649:RESET_B *1649:D 0
195 *1649:RESET_B *108:192 0.000177139
196 *1649:RESET_B *587:8 0
197 *1649:RESET_B *587:12 0
198 *1649:RESET_B *588:47 4.38136e-05
199 *1649:RESET_B *626:42 2.32739e-05
200 *1650:RESET_B *30:13 6.95093e-05
201 *1650:RESET_B *637:33 0.00013324
202 *1651:RESET_B *1594:A 2.49484e-05
203 *1651:RESET_B *1595:B1 0.00013792
204 *1651:RESET_B *110:14 1.93709e-05
205 *1651:RESET_B *271:28 0.000238982
206 *1651:RESET_B *493:40 1.52723e-05
207 *1652:RESET_B *81:10 0
208 *1652:RESET_B *108:10 8.48705e-05
209 *1652:RESET_B *111:8 5.49589e-05
210 *1652:RESET_B *490:30 0.000175601
211 *1652:RESET_B *493:38 0.000214125
212 *1654:RESET_B *1546:B 0
213 *1654:RESET_B *1654:D 5.048e-05
214 *1654:RESET_B *84:23 2.14757e-05
215 *1656:RESET_B *44:23 0.000129507
216 *1657:RESET_B *1639:S 0.000137983
217 *1657:RESET_B *44:23 0.000144563
218 *1657:RESET_B *84:47 0.000222666
219 *1657:RESET_B *629:8 6.03035e-05
220 *1658:RESET_B *1575:A2 0.000127793
221 *1658:RESET_B *1658:D 2.29097e-05
222 *1658:RESET_B *36:5 6.84519e-05
223 *1658:RESET_B *108:194 7.78179e-05
224 *1658:RESET_B *651:14 0.000225616
225 *1659:RESET_B *1579:B2 0
226 *1659:RESET_B *1659:D 5.75147e-05
227 *1659:RESET_B *108:192 7.43578e-06
228 *1659:RESET_B *108:194 2.55516e-05
229 *1660:RESET_B *1660:D 9.33978e-07
230 *1660:RESET_B *18:13 0.000519188
231 *1660:RESET_B *22:5 0.000243897
232 *1660:RESET_B *30:13 0.000581032
233 *1660:RESET_B *34:9 5.54856e-05
234 *1660:RESET_B *580:318 0
235 *1661:RESET_B *1641:A0 0
236 *1661:RESET_B *14:5 7.61941e-05
237 *1661:RESET_B *36:5 0.000397863
238 *1661:RESET_B *39:17 0.000127396
239 *1661:RESET_B *580:339 0
240 *1662:RESET_B *581:116 1.20135e-05
241 *1662:RESET_B *657:6 4.85567e-05
242 *1663:RESET_B *1639:S 8.79458e-05
243 *1663:RESET_B *44:23 3.67419e-05
244 *1665:RESET_B *1561:A 9.94845e-05
245 *1665:RESET_B *1656:CLK 8.71192e-05
246 *1665:RESET_B *1656:D 3.68039e-06
247 *1665:RESET_B *580:78 0
248 *1665:RESET_B *580:80 0
249 *1665:RESET_B *629:8 8.79458e-05
250 *1666:RESET_B *1585:B1 1.77736e-05
251 *1666:RESET_B *630:12 4.57695e-05
252 *1667:RESET_B *1667:D 5.25816e-05
253 *1667:RESET_B *93:62 9.23695e-05
254 *1668:RESET_B *39:17 0
255 *1669:RESET_B *1589:A2 8.9403e-05
256 *1669:RESET_B *1669:D 0.000171154
257 *1672:RESET_B *1672:D 2.29097e-05
258 *1673:RESET_B *106:26 2.29097e-05
259 *1673:RESET_B *651:14 1.27848e-05
260 *1674:RESET_B *1621:A0 0
261 *1674:RESET_B *1637:A0 0.000180859
262 *1674:RESET_B *1676:D 0.000105682
263 *1674:RESET_B *17:11 8.45561e-05
264 *1674:RESET_B *35:7 5.27003e-05
265 *1674:RESET_B *587:73 5.88389e-05
266 *1674:RESET_B *588:85 5.72597e-05
267 *1676:RESET_B *1585:A1 5.405e-05
268 *1676:RESET_B *1585:B1 0.000219797
269 *1676:RESET_B *83:16 0.000143557
270 *1676:RESET_B *83:47 9.46332e-05
271 *1676:RESET_B *112:18 0
272 *1676:RESET_B *625:183 0
273 *1676:RESET_B *627:14 0
274 *1677:RESET_B *1587:A 0
275 *1677:RESET_B *1612:A1 1.20135e-05
276 *1677:RESET_B *642:12 2.51343e-06
277 *1678:RESET_B *1549:A 0
278 *1678:RESET_B *1667:D 0.000128868
279 *1678:RESET_B *93:62 1.20135e-05
280 *1678:RESET_B *580:147 0
281 *1679:RESET_B *1493:D 0
282 *1679:RESET_B *1494:D 0
283 *1679:RESET_B *1529:B 7.48091e-05
284 *1679:RESET_B *1538:CLK 0.000142856
285 *1679:RESET_B *1639:S 0
286 *1679:RESET_B *44:23 0
287 *1679:RESET_B *644:6 0.000138106
288 *1680:RESET_B *1639:S 0.000103087
289 *1680:RESET_B *84:72 2.59355e-05
290 *1680:RESET_B *645:10 9.23148e-05
291 *1681:RESET_B *1562:A 5.66157e-05
292 *1681:RESET_B *1566:A 2.59355e-05
293 *1681:RESET_B *1566:B 9.71532e-05
294 *1681:RESET_B *1632:A1 8.79458e-05
295 *1681:RESET_B *580:25 2.14378e-05
296 *1681:RESET_B *625:183 2.29097e-05
297 *1682:RESET_B *1572:A 9.80173e-05
298 *1682:RESET_B *1572:B 0.000188586
299 *1682:RESET_B *1575:A2 0.000221634
300 *1682:RESET_B *1633:A0 0
301 *1682:RESET_B *1673:D 5.71239e-05
302 *1682:RESET_B *1682:D 0
303 *1682:RESET_B *20:13 6.05161e-06
304 *1682:RESET_B *36:5 0.000118339
305 *1682:RESET_B *80:93 0
306 *1682:RESET_B *625:82 0.000308053
307 *1684:RESET_B *1564:A1 4.77607e-05
308 *1684:RESET_B *1564:B2 0
309 *1684:RESET_B *1623:A0 1.65437e-05
310 *1684:RESET_B *1623:A1 1.92905e-05
311 *1684:RESET_B *1623:S 0
312 *1684:RESET_B *1672:D 0.000137548
313 *1684:RESET_B *580:307 0
314 *1684:RESET_B *625:170 2.02828e-05
315 *1684:RESET_B *636:6 7.07155e-06
316 *1685:RESET_B *1572:B 0.00014983
317 *1685:RESET_B *1601:A2 5.19842e-06
318 *1685:RESET_B *1636:A1 0
319 *1685:RESET_B *80:12 0
320 *1685:RESET_B *80:45 6.67621e-05
321 *1685:RESET_B *80:62 2.66026e-05
322 *1685:RESET_B *109:34 0.000220865
323 *1685:RESET_B *650:12 2.89016e-05
324 *1687:RESET_B *1597:A 4.9293e-06
325 *1687:RESET_B *271:16 1.39711e-05
326 *1688:RESET_B *1562:A 3.32346e-05
327 *1688:RESET_B *1679:CLK 3.34366e-05
328 *1688:RESET_B *1679:D 0.000134514
329 *1688:RESET_B *1688:CLK 0.000180377
330 *1688:RESET_B *1688:D 0.000113845
331 *1688:RESET_B *50:19 0.000260716
332 *1688:RESET_B *580:64 9.11365e-06
333 *1688:RESET_B *645:10 0
334 *1689:RESET_B *1636:A0 0
335 *1689:RESET_B *662:8 1.58163e-05
336 *1689:RESET_B *664:8 3.35272e-05
337 *1690:RESET_B *1640:A1 0
338 *1690:RESET_B *1689:D 0
339 *1691:RESET_B *1690:D 0
340 *2:22 *1615:A0 3.05475e-05
341 *2:22 *1615:A1 2.43128e-05
342 *2:22 *1660:D 0
343 *2:22 *39:17 0
344 *2:22 *580:318 0
345 *2:36 *1612:A1 2.22999e-05
346 *2:36 *1660:CLK 7.00295e-05
347 *2:36 *1664:D 2.40379e-05
348 *2:36 *1668:D 0
349 *2:36 *9:11 0.000130222
350 *2:36 *642:12 1.97865e-05
351 *2:63 *1615:A1 3.32132e-06
352 *2:63 *1672:D 0
353 *2:63 *18:13 8.15095e-05
354 *2:63 *30:13 4.00025e-05
355 *2:65 *18:13 0.00029379
356 *2:65 *30:13 0.000153598
357 *2:69 *18:13 0.000126956
358 *2:69 *30:13 6.19347e-05
359 *2:73 *18:13 0.000133491
360 *2:73 *30:13 0.000219592
361 *2:73 *34:9 1.40849e-05
362 *2:75 *1575:A3 0.000177533
363 *2:75 *18:13 7.89349e-05
364 *2:75 *34:9 5.43491e-05
365 *2:75 *586:65 0
366 *2:75 *586:86 0
367 *2:79 *1575:A3 0.000200059
368 *2:79 *18:13 5.19859e-05
369 *2:79 *106:94 0
370 *2:79 *586:86 0
371 *2:81 *1613:A0 5.10822e-05
372 *2:81 *1613:A1 0
373 *2:81 *18:13 0.00011061
374 *2:81 *580:236 0.000201636
375 *2:81 *586:86 0
376 *2:83 *1613:A1 0
377 *2:83 *580:236 0.000150144
378 *2:83 *587:32 0
379 *2:87 *1595:B1 1.437e-05
380 *2:87 *271:28 8.84802e-05
381 *2:87 *580:236 9.48162e-05
382 *2:87 *587:32 7.65867e-05
383 *2:89 *1595:B1 8.15858e-05
384 *2:89 *271:28 0.00016245
385 *2:120 *1591:B2 4.19624e-06
386 *2:120 *1595:A2 5.33005e-05
387 *2:120 *1651:D 0.00022459
388 *2:120 *93:68 2.04825e-05
389 *2:120 *271:16 7.55193e-05
390 *2:120 *587:32 0.000308511
391 *2:120 *616:12 1.55885e-05
392 *2:120 *625:65 0
393 *2:134 *1597:A 0.000277516
394 *2:134 *1597:C 3.88892e-05
395 *2:134 *1638:A1 6.8023e-05
396 *2:134 *1667:D 2.14658e-05
397 *2:134 *93:62 0.000216755
398 *2:134 *271:16 0
399 *2:134 *631:14 9.99644e-06
400 *2:185 *1577:C 7.45329e-05
401 *2:185 *1621:A0 0
402 *2:185 *1637:A0 0.000124689
403 *2:185 *1637:A1 3.52572e-05
404 *2:185 *625:55 7.79781e-06
405 *2:187 *1577:C 1.09232e-05
406 *2:187 *1637:A1 2.11419e-05
407 *2:187 *625:55 1.0946e-05
408 *2:189 *1577:C 0.000100008
409 *2:189 *107:8 9.30307e-05
410 *2:189 *108:10 0
411 *2:189 *625:55 4.46186e-06
412 *2:189 *626:34 0
413 *2:191 *1577:C 3.66602e-05
414 *2:191 *1670:D 0
415 *2:191 *107:8 1.10866e-05
416 *2:191 *107:14 5.45988e-05
417 *2:201 *1670:D 0
418 *2:201 *81:10 0
419 *2:201 *107:14 1.01912e-05
420 *2:201 *108:10 0.000120678
421 *2:201 *588:18 0.000123509
422 *2:201 *634:10 5.92419e-05
423 *2:240 *1602:A3 0.000121221
424 *2:240 *1602:B2 8.15736e-05
425 *2:240 *112:30 6.35515e-05
426 *2:240 *588:18 0
427 *2:240 *625:35 0.000650328
428 *2:242 *1553:B 6.27242e-05
429 *2:242 *104:18 2.75651e-06
430 *2:242 *113:33 4.69976e-05
431 *2:244 *1553:B 5.80706e-06
432 *2:244 *113:33 0.00024095
433 *2:244 *502:25 0
434 *2:269 *1553:B 0.000190241
435 *2:269 *1555:A 1.76135e-05
436 *2:269 *1602:B2 8.23597e-06
437 *2:269 *104:18 0.000107096
438 *2:269 *628:12 0
439 *2:276 *1496:CLK 0
440 *2:276 *1546:B 0
441 *2:276 *1555:A 9.56872e-05
442 *2:276 *1566:B 0.000232053
443 *2:276 *1603:A2 2.06178e-05
444 *2:276 *1654:D 0
445 *2:276 *104:18 5.01876e-06
446 *2:276 *626:202 0.000126439
447 *2:278 *1123:A 9.48025e-05
448 *2:278 *1546:B 0
449 *2:278 *1566:B 0.000201739
450 *2:339 *1521:B 0
451 *2:339 *1528:A 9.74783e-05
452 *2:339 *1546:A 0
453 *2:339 *84:23 0.000220865
454 *2:339 *84:107 0.000480723
455 *2:339 *112:10 0.000368201
456 *2:339 *627:8 3.80385e-05
457 *2:349 *1521:B 7.48091e-05
458 *2:349 *1528:A 0
459 *2:349 *112:10 8.66063e-05
460 *2:351 *674:12 0.000133005
461 *2:355 *1491:D 0
462 *2:355 *1532:A 0
463 *2:355 *674:12 0.000279953
464 *2:372 *1463:B 0
465 *2:372 *1492:D 0.000126654
466 *2:372 *674:12 0
467 *2:374 *1537:D 4.20435e-05
468 *2:374 *674:12 0
469 *2:376 *1537:D 8.90769e-05
470 *2:376 *445:36 0
471 *2:376 *674:12 0
472 *2:378 *445:36 0
473 *2:378 *674:12 0
474 *2:384 *1490:D 8.99991e-05
475 *2:384 *1505:D 0
476 *2:384 *1525:A 1.34703e-05
477 *2:384 *69:12 0
478 *2:384 *444:34 0
479 *2:384 *445:36 0
480 *2:384 *674:12 0
481 *2:392 *1490:D 0.000126629
482 *2:392 *1525:A 8.78006e-05
483 *2:392 *1541:D 1.51501e-05
484 *2:392 *444:34 0
485 *2:392 *445:36 0
486 *2:392 *445:60 9.41642e-05
487 *2:392 *491:12 0.000137289
488 *2:392 *508:22 0.000363404
489 *2:392 *513:23 8.43535e-06
490 *2:392 *514:10 0
491 *2:413 *82:92 0
492 *2:413 *674:12 0.000166221
493 *2:479 *517:12 0
494 *2:479 *674:12 0.000275109
495 *2:486 *84:144 0
496 *2:486 *522:18 1.19402e-05
497 *2:486 *674:12 0.000132297
498 *2:493 *522:18 0.000104086
499 *2:493 *674:12 0.000279238
500 *2:500 *522:18 4.79479e-05
501 *2:500 *674:12 0.000133005
502 *2:523 *1596:B2 0.000140933
503 *2:523 *1679:D 5.17614e-05
504 *2:523 *11:14 0
505 *2:523 *644:6 0.000136189
506 *2:523 *658:14 0
507 *2:532 *1562:A 0.000255
508 *2:532 *1596:B2 4.65158e-06
509 *2:532 *1679:CLK 0.00024136
510 *2:572 *1562:A 0.00010959
511 *2:572 *1679:CLK 0.000128868
512 *2:600 *1498:CLK 0
513 *2:600 *84:179 0
514 *2:600 *522:18 1.69115e-05
515 *2:600 *674:12 0.000274621
516 *2:623 *1585:B1 1.00073e-05
517 *2:623 *1621:A0 0
518 *2:623 *1637:A0 9.49131e-05
519 *2:623 *1676:D 5.52238e-05
520 *2:623 *108:180 1.39726e-05
521 *2:623 *630:12 2.44318e-05
522 *2:656 *1575:A2 1.94945e-05
523 *2:656 *36:5 6.10018e-06
524 *2:670 *1647:CLK 2.89016e-05
525 *2:670 *106:26 6.06709e-05
526 *2:670 *651:14 4.47762e-05
527 *2:702 *1601:A1 0.000176226
528 *2:702 *1636:S 0.000226021
529 *2:702 *1640:A1 8.15095e-05
530 *2:702 *80:62 0.000105328
531 *2:716 *1636:S 0.000128868
532 *2:716 *1640:A1 0.000119618
533 *2:716 *1690:D 0
534 *2:716 *664:8 0.000271339
535 *1:21 *1656:RESET_B 6.70123e-05
*RES
1 s_axi_aresetn *1660:RESET_B 32.8565 
2 *1660:RESET_B *2:22 5.81067 
3 *2:22 *1668:RESET_B 1.22525 
4 *2:22 *2:36 17.1436 
5 *2:36 *1677:RESET_B 0.655944 
6 *2:36 *1661:RESET_B 16.5619 
7 *1660:RESET_B *2:63 8.4666 
8 *2:63 *2:65 5.2228 
9 *2:65 *2:69 3.01982 
10 *2:69 *2:73 5.54458 
11 *2:73 *2:75 6.90598 
12 *2:75 *2:79 6.80696 
13 *2:79 *2:81 7.32677 
14 *2:81 *2:83 2.69803 
15 *2:83 *2:87 5.9035 
16 *2:87 *2:89 2.90843 
17 *2:89 *1651:RESET_B 12.1609 
18 *2:89 *1671:RESET_B 4.5 
19 *2:87 *2:120 17.014 
20 *2:120 *1687:RESET_B 0.655944 
21 *2:120 *2:134 16.8218 
22 *2:134 *1667:RESET_B 1.22525 
23 *2:134 *1678:RESET_B 11.9332 
24 *2:83 *1662:RESET_B 5.15594 
25 *2:81 *1675:RESET_B 4.5 
26 *2:79 *1659:RESET_B 9.01735 
27 *1659:RESET_B *1649:RESET_B 10.8169 
28 *1649:RESET_B *2:181 5.24258 
29 *2:181 *2:185 9.12133 
30 *2:185 *2:187 0.80446 
31 *2:187 *2:189 4.802 
32 *2:189 *2:191 2.27724 
33 *2:191 *2:201 11.9761 
34 *2:201 *1652:RESET_B 16.9629 
35 *2:201 *1670:RESET_B 4.5 
36 *2:191 *1683:RESET_B 4.5 
37 *2:189 *1686:RESET_B 4.5 
38 *2:187 *1648:RESET_B 5.15594 
39 *2:185 *2:240 10.016 
40 *2:240 *2:242 1.22525 
41 *2:242 *2:244 4.38121 
42 *2:244 *1644:RESET_B 8.00249 
43 *2:244 *1643:RESET_B 7.43318 
44 *2:242 *1653:RESET_B 4.5 
45 *2:240 *2:269 5.85399 
46 *2:269 *1655:RESET_B 4.5 
47 *2:269 *2:276 7.11637 
48 *2:276 *2:278 3.75002 
49 *2:278 *1646:RESET_B 13.0025 
50 *1646:RESET_B *1676:RESET_B 12.5991 
51 *2:278 *1681:RESET_B 9.26488 
52 *2:276 *1654:RESET_B 6.8515 
53 *1654:RESET_B *2:339 28.7897 
54 *2:339 *1534:RESET_B 0.655944 
55 *2:339 *2:349 6.3812 
56 *2:349 *2:351 2.27724 
57 *2:351 *2:355 5.54458 
58 *2:355 *1492:RESET_B 13.5099 
59 *1492:RESET_B *2:372 15.1312 
60 *2:372 *2:374 2.27724 
61 *2:374 *2:376 4.38121 
62 *2:376 *2:378 2.69803 
63 *2:378 *2:384 16.6783 
64 *2:384 *2:392 21.3813 
65 *2:392 *1541:RESET_B 8.03962 
66 *2:392 *1540:RESET_B 7.87873 
67 *2:384 *2:411 4.5 
68 *2:411 *2:413 5.2228 
69 *2:413 *1495:RESET_B 8.88121 
70 *2:413 *1535:RESET_B 4.5 
71 *2:411 *1490:RESET_B 6.35644 
72 *2:378 *1542:RESET_B 15.4035 
73 *2:376 *1537:RESET_B 4.5 
74 *2:374 *1497:RESET_B 4.5 
75 *2:372 *1543:RESET_B 8.5718 
76 *2:355 *2:460 4.5 
77 *2:460 *1496:RESET_B 4.64111 
78 *2:460 *1536:RESET_B 2.36387 
79 *2:351 *1491:RESET_B 4.5 
80 *2:349 *2:479 4.802 
81 *2:479 *1539:RESET_B 4.5 
82 *2:479 *2:486 2.27724 
83 *2:486 *1499:RESET_B 4.5 
84 *2:486 *2:493 4.802 
85 *2:493 *1494:RESET_B 4.5 
86 *2:493 *2:500 2.27724 
87 *2:500 *2:502 4.5 
88 *2:502 *1679:RESET_B 12.0421 
89 *1679:RESET_B *2:523 9.71042 
90 *2:523 *1645:RESET_B 6.77724 
91 *2:523 *2:532 4.802 
92 *2:532 *2:534 4.5 
93 *2:534 *1657:RESET_B 7.76613 
94 *1657:RESET_B *1656:RESET_B 11.2772 
95 *1656:RESET_B *1665:RESET_B 6.83172 
96 *2:534 *1663:RESET_B 1.22525 
97 *2:532 *2:572 2.27724 
98 *2:572 *1680:RESET_B 9.71042 
99 *2:572 *1688:RESET_B 13.5471 
100 *2:502 *1538:RESET_B 1.22525 
101 *2:500 *2:600 4.802 
102 *2:600 *1493:RESET_B 4.5 
103 *2:600 *1498:RESET_B 11.406 
104 *2:181 *2:623 10.6139 
105 *2:623 *1666:RESET_B 1.22525 
106 *2:623 *1674:RESET_B 15.906 
107 *2:75 *1647:RESET_B 5.72525 
108 *2:75 *2:656 8.67006 
109 *2:656 *1658:RESET_B 11.4184 
110 *2:656 *2:670 6.95051 
111 *2:670 *1673:RESET_B 0.655944 
112 *2:670 *1682:RESET_B 21.0421 
113 *1682:RESET_B *1685:RESET_B 18.8392 
114 *1685:RESET_B *2:702 11.8268 
115 *2:702 *1689:RESET_B 6.29456 
116 *2:702 *2:716 10.9357 
117 *2:716 *1691:RESET_B 1.22525 
118 *2:716 *1690:RESET_B 13.802 
119 *2:73 *1650:RESET_B 6.29456 
120 *2:69 *1669:RESET_B 6.86387 
121 *2:65 *1664:RESET_B 4.5 
122 *2:63 *2:754 4.5 
123 *2:754 *1672:RESET_B 1.25001 
124 *2:754 *1684:RESET_B 12.8095 
*END

*D_NET *7 0.000178552
*CONN
*P s_axi_awready O
*P s_axi_wready O
*CAP
1 s_axi_awready 7.37213e-05
2 s_axi_wready 7.37213e-05
3 s_axi_awready s_axi_bresp[0] 3.11093e-05
*RES
1 s_axi_wready s_axi_awready 3.16833 
*END

*D_NET *8 0.00355948
*CONN
*P s_axi_awvalid I
*I *1547:B I *D sky130_fd_sc_hd__nand2_1
*CAP
1 s_axi_awvalid 0.00147282
2 *1547:B 0
3 *8:13 0.00147282
4 *8:13 s_axi_bvalid 4.99671e-05
5 *8:13 *1623:A0 5.22636e-05
6 *8:13 *1631:A1 4.38511e-05
7 *8:13 *580:64 0
8 *8:13 *580:74 0.000197977
9 *8:13 *645:10 4.1331e-06
10 *1:21 *8:13 0.000265648
*RES
1 s_axi_awvalid *8:13 47.317 
2 *8:13 *1547:B 13.8 
*END

*D_NET *9 0.0101194
*CONN
*P s_axi_bready I
*I *1605:C I *D sky130_fd_sc_hd__nor3_1
*CAP
1 s_axi_bready 0.00142307
2 *1605:C 0.000556484
3 *9:11 0.00197956
4 *1605:C *1559:A1 8.25843e-06
5 *1605:C *1570:A2 1.3142e-05
6 *1605:C *1570:A3 0.000515439
7 *1605:C *1603:A2 0
8 *1605:C *1603:B1 0
9 *1605:C *1603:C1 0
10 *1605:C *1606:B1 1.33343e-05
11 *1605:C *1634:A0 4.32182e-06
12 *1605:C *83:20 0.000145902
13 *1605:C *587:8 4.88515e-05
14 *1605:C *625:139 0.000719222
15 *1605:C *625:170 0.000311745
16 *1605:C *626:82 0.000671503
17 *9:11 *1588:A 2.22043e-05
18 *9:11 *1588:B 0.000124749
19 *9:11 *1590:A1 0.000280402
20 *9:11 *1601:A0 0.00130847
21 *9:11 *1615:S 1.50563e-05
22 *9:11 *1619:A0 0.000392757
23 *9:11 *1660:CLK 7.5324e-05
24 *9:11 *50:11 0.000356002
25 *9:11 *109:14 0.00052331
26 *9:11 *580:339 3.28534e-05
27 *9:11 *622:14 0.000345964
28 *9:11 *632:10 0.00010127
29 *2:36 *9:11 0.000130222
*RES
1 s_axi_bready *9:11 34.7678 
2 *9:11 *1605:C 39.5303 
*END

*D_NET *10 0.000178552
*CONN
*P s_axi_bresp[0] O
*P s_axi_bresp[1] O
*CAP
1 s_axi_bresp[0] 7.37213e-05
2 s_axi_bresp[1] 7.37213e-05
3 s_axi_awready s_axi_bresp[0] 3.11093e-05
*RES
1 s_axi_bresp[1] s_axi_bresp[0] 3.16833 
*END

*D_NET *11 0.00809035
*CONN
*P s_axi_bvalid O
*I *1546:Y O *D sky130_fd_sc_hd__nor2_1
*CAP
1 s_axi_bvalid 0.00033418
2 *1546:Y 0.000860748
3 *11:22 0.00123705
4 *11:14 0.00176362
5 s_axi_bvalid *1584:C1 1.60258e-05
6 s_axi_bvalid *1617:A0 0
7 s_axi_bvalid *1623:A0 0
8 s_axi_bvalid *12:17 0.000310202
9 s_axi_bvalid *586:52 0.000202842
10 *11:14 *1519:B 0
11 *11:14 *1565:A2 2.89114e-05
12 *11:14 *1565:B1 1.58029e-05
13 *11:14 *1596:A1 0
14 *11:14 *1596:B2 0
15 *11:14 *1614:A0 0
16 *11:14 *1645:D 1.74352e-05
17 *11:14 *84:135 0
18 *11:14 *104:10 0.000288576
19 *11:14 *105:186 0
20 *11:14 *644:6 0
21 *11:14 *658:14 0
22 *11:22 *1565:A1 0.000268134
23 *11:22 *1565:A2 3.53922e-05
24 *11:22 *1565:A3 0
25 *11:22 *1565:B1 2.79421e-05
26 *11:22 *1584:C1 0
27 *11:22 *1617:A0 0.000806331
28 *11:22 *1623:A1 3.79197e-05
29 *11:22 *1684:CLK 0
30 *11:22 *1684:D 0.000293289
31 *11:22 *16:15 1.21416e-05
32 *11:22 *29:13 0.000234916
33 *11:22 *105:186 6.8445e-06
34 *11:22 *105:194 0.000206954
35 *11:22 *580:289 0.000273032
36 *11:22 *586:52 3.9883e-05
37 *11:22 *587:63 0.000158912
38 *11:22 *625:170 0.000563309
39 *2:523 *11:14 0
40 *8:13 s_axi_bvalid 4.99671e-05
*RES
1 *1546:Y *11:14 43.0031 
2 *11:14 *11:22 42.4581 
3 *11:22 s_axi_bvalid 13.552 
*END

*D_NET *12 0.00420612
*CONN
*P s_axi_wdata[0] I
*I *1607:A0 I *D sky130_fd_sc_hd__mux2_1
*CAP
1 s_axi_wdata[0] 0.000687008
2 *1607:A0 0
3 *12:17 0.000687008
4 *12:17 *1607:A1 5.33005e-05
5 *12:17 *1608:A0 0.000151333
6 *12:17 *1616:A0 0.000482601
7 *12:17 *1617:A0 0.00034287
8 *12:17 *1625:A0 0.000153047
9 *12:17 *1635:S 0.000210742
10 *12:17 *50:11 0.000647998
11 *12:17 *50:19 0.000197176
12 *12:17 *580:78 0.000111501
13 *12:17 *580:80 0.000113005
14 *12:17 *586:52 5.83233e-05
15 s_axi_bvalid *12:17 0.000310202
*RES
1 s_axi_wdata[0] *12:17 46.8665 
2 *12:17 *1607:A0 9.3 
*END

*D_NET *13 0.00361832
*CONN
*P s_axi_wdata[10] I
*I *1617:A0 I *D sky130_fd_sc_hd__mux2_1
*CAP
1 s_axi_wdata[10] 0.000489858
2 *1617:A0 0.000489858
3 *1617:A0 *1584:B1 0.00067278
4 *1617:A0 *35:7 0.000579149
5 *1617:A0 *109:107 1.00375e-05
6 *1617:A0 *580:289 0.000116389
7 *1617:A0 *586:52 5.3898e-05
8 *1617:A0 *637:33 5.71472e-05
9 s_axi_bvalid *1617:A0 0
10 *11:22 *1617:A0 0.000806331
11 *12:17 *1617:A0 0.00034287
*RES
1 s_axi_wdata[10] *1617:A0 44.716 
*END

*D_NET *14 0.00520512
*CONN
*P s_axi_wdata[11] I
*I *1618:A0 I *D sky130_fd_sc_hd__mux2_1
*CAP
1 s_axi_wdata[11] 0.000699247
2 *1618:A0 4.24033e-05
3 *14:5 0.00074165
4 *1618:A0 *631:14 9.80173e-05
5 *14:5 *1601:A0 0.000136239
6 *14:5 *1601:S0 0.000585382
7 *14:5 *1628:S 3.69483e-05
8 *14:5 *1641:A0 0.000328767
9 *14:5 *1658:D 0.000350497
10 *14:5 *26:5 0.000954275
11 *14:5 *36:5 0
12 *14:5 *39:17 0.000205271
13 *14:5 *580:198 7.07908e-05
14 *14:5 *622:14 0.000115251
15 *14:5 *625:82 0.000739089
16 *14:5 *642:12 2.50938e-05
17 *1661:RESET_B *14:5 7.61941e-05
*RES
1 s_axi_wdata[11] *14:5 45.7428 
2 *14:5 *1618:A0 15.1119 
*END

*D_NET *15 0.00134935
*CONN
*P s_axi_wdata[12] I
*I *1619:A0 I *D sky130_fd_sc_hd__mux2_1
*CAP
1 s_axi_wdata[12] 0.000241062
2 *1619:A0 0.000241062
3 *1619:A0 *1586:A 3.69047e-06
4 *1619:A0 *1586:B 0
5 *1619:A0 *1590:A1 0.000107404
6 *1619:A0 *20:13 0.000336092
7 *1619:A0 *39:17 2.72859e-05
8 *9:11 *1619:A0 0.000392757
*RES
1 s_axi_wdata[12] *1619:A0 27.1912 
*END

*D_NET *16 0.00319785
*CONN
*P s_axi_wdata[13] I
*I *1620:A0 I *D sky130_fd_sc_hd__mux2_1
*CAP
1 s_axi_wdata[13] 0.000508264
2 *1620:A0 0
3 *16:15 0.000508264
4 *16:15 *1564:A1 0.000189776
5 *16:15 *1564:B2 0.000304387
6 *16:15 *1581:B 9.29046e-05
7 *16:15 *1684:CLK 7.76773e-05
8 *16:15 *17:11 0.00045934
9 *16:15 *35:7 0.000608094
10 *16:15 *580:289 1.55475e-05
11 *16:15 *586:42 0.000417765
12 *16:15 *636:6 3.69047e-06
13 *11:22 *16:15 1.21416e-05
*RES
1 s_axi_wdata[13] *16:15 41.8417 
2 *16:15 *1620:A0 9.3 
*END

*D_NET *17 0.00613682
*CONN
*P s_axi_wdata[14] I
*I *1621:A0 I *D sky130_fd_sc_hd__mux2_1
*CAP
1 s_axi_wdata[14] 0.000842477
2 *1621:A0 0.00050185
3 *17:11 0.00134433
4 *1621:A0 *1621:S 0.000131439
5 *1621:A0 *1637:A1 8.99414e-06
6 *1621:A0 *1637:S 0.000136958
7 *1621:A0 *1676:D 0
8 *1621:A0 *108:10 0.000111872
9 *1621:A0 *108:180 6.49413e-05
10 *1621:A0 *580:103 8.63477e-05
11 *1621:A0 *580:105 9.11365e-06
12 *1621:A0 *626:34 0.000246057
13 *1621:A0 *652:14 1.9069e-05
14 *17:11 *1564:A1 0
15 *17:11 *1564:A2 0.000200053
16 *17:11 *1616:A0 0.000420651
17 *17:11 *1625:A0 0
18 *17:11 *1625:A1 4.58192e-05
19 *17:11 *1635:A1 0.000225606
20 *17:11 *1665:D 9.62881e-05
21 *17:11 *580:103 0
22 *17:11 *586:42 5.09485e-05
23 *17:11 *587:73 0.000388641
24 *17:11 *625:170 0.000561413
25 *17:11 *626:90 0
26 *17:11 *649:10 0.000100061
27 *1674:RESET_B *1621:A0 0
28 *1674:RESET_B *17:11 8.45561e-05
29 *2:185 *1621:A0 0
30 *2:623 *1621:A0 0
31 *16:15 *17:11 0.00045934
*RES
1 s_axi_wdata[14] *17:11 39.7651 
2 *17:11 *1621:A0 31.5352 
*END

*D_NET *18 0.00760247
*CONN
*P s_axi_wdata[15] I
*I *1622:A0 I *D sky130_fd_sc_hd__mux2_1
*CAP
1 s_axi_wdata[15] 0.000178016
2 *1622:A0 7.74379e-05
3 *18:13 0.000907163
4 *18:11 0.00100774
5 *1622:A0 *1591:A2 0.000177815
6 *1622:A0 *1622:A1 2.14658e-05
7 *1622:A0 *616:12 0.000108437
8 *18:11 *22:5 0.000247407
9 *18:11 *37:9 0.000247407
10 *18:11 *586:52 1.36635e-05
11 *18:13 *1575:A3 0.000202976
12 *18:13 *1580:A3 8.45782e-05
13 *18:13 *1591:A2 7.90803e-05
14 *18:13 *1600:A3 9.25014e-06
15 *18:13 *22:5 0.0022006
16 *18:13 *30:13 1.78161e-05
17 *18:13 *106:113 0
18 *18:13 *106:115 9.50387e-05
19 *18:13 *580:236 0.00044852
20 *18:13 *639:10 8.15843e-05
21 *1660:RESET_B *18:13 0.000519188
22 *2:63 *18:13 8.15095e-05
23 *2:65 *18:13 0.00029379
24 *2:69 *18:13 0.000126956
25 *2:73 *18:13 0.000133491
26 *2:75 *18:13 7.89349e-05
27 *2:79 *18:13 5.19859e-05
28 *2:81 *18:13 0.00011061
*RES
1 s_axi_wdata[15] *18:11 18.3317 
2 *18:11 *18:13 49.827 
3 *18:13 *1622:A0 16.8198 
*END

*D_NET *19 0.00187195
*CONN
*P s_axi_wdata[16] I
*I *1623:A0 I *D sky130_fd_sc_hd__mux2_1
*CAP
1 s_axi_wdata[16] 0.000439644
2 *1623:A0 0.000439644
3 *1623:A0 *1584:C1 0.000182085
4 *1623:A0 *1623:A1 6.05161e-06
5 *1623:A0 *1623:S 8.66063e-05
6 *1623:A0 *40:11 0.000538366
7 *1623:A0 *580:297 1.36251e-05
8 *1623:A0 *580:307 9.71197e-05
9 *1623:A0 *609:28 0
10 s_axi_bvalid *1623:A0 0
11 *1684:RESET_B *1623:A0 1.65437e-05
12 *8:13 *1623:A0 5.22636e-05
*RES
1 s_axi_wdata[16] *1623:A0 32.9585 
*END

*D_NET *20 0.0043902
*CONN
*P s_axi_wdata[17] I
*I *1624:A0 I *D sky130_fd_sc_hd__mux2_1
*CAP
1 s_axi_wdata[17] 0.000679559
2 *1624:A0 0
3 *20:13 0.000679559
4 *20:13 *1575:A2 1.02936e-05
5 *20:13 *1588:B 4.51691e-05
6 *20:13 *1590:A1 0.00066164
7 *20:13 *1590:A2 8.03678e-05
8 *20:13 *1624:A1 0.000135028
9 *20:13 *1628:A0 0.00113524
10 *20:13 *1633:A0 4.45768e-06
11 *20:13 *1647:CLK 2.26327e-05
12 *20:13 *1650:D 0.000129387
13 *20:13 *30:13 2.59093e-05
14 *20:13 *80:112 0.000127075
15 *20:13 *580:192 9.60939e-05
16 *20:13 *580:198 9.41642e-05
17 *20:13 *637:10 3.17148e-05
18 *20:13 *637:33 8.97679e-05
19 *1619:A0 *20:13 0.000336092
20 *1682:RESET_B *20:13 6.05161e-06
*RES
1 s_axi_wdata[17] *20:13 41.1338 
2 *20:13 *1624:A0 9.3 
*END

*D_NET *21 0.00362716
*CONN
*P s_axi_wdata[18] I
*I *1625:A0 I *D sky130_fd_sc_hd__mux2_1
*CAP
1 s_axi_wdata[18] 0.000596933
2 *1625:A0 0.000596933
3 *1625:A0 *1574:A1 1.40306e-05
4 *1625:A0 *1608:A0 0.000571585
5 *1625:A0 *1616:A0 2.09826e-05
6 *1625:A0 *1635:A0 0.000392757
7 *1625:A0 *1665:D 5.73423e-05
8 *1625:A0 *580:101 0.00019771
9 *1625:A0 *580:103 2.61337e-05
10 *1625:A0 *626:90 0.000780429
11 *1625:A0 *637:33 0.000183713
12 *1625:A0 *638:6 3.5566e-05
13 *12:17 *1625:A0 0.000153047
14 *17:11 *1625:A0 0
*RES
1 s_axi_wdata[18] *1625:A0 46.8447 
*END

*D_NET *22 0.00538081
*CONN
*P s_axi_wdata[19] I
*I *1626:A0 I *D sky130_fd_sc_hd__mux2_1
*CAP
1 s_axi_wdata[19] 0.00106388
2 *1626:A0 5.40355e-05
3 *22:5 0.00111791
4 *1626:A0 *1579:B2 0.0001827
5 *1626:A0 *1659:D 6.09773e-05
6 *22:5 *1574:C1 0
7 *22:5 *1659:D 8.15095e-05
8 *22:5 *1669:D 0
9 *22:5 *37:9 0
10 *22:5 *106:113 2.46553e-05
11 *22:5 *108:192 3.2006e-05
12 *22:5 *580:307 7.12322e-05
13 *1660:RESET_B *22:5 0.000243897
14 *18:11 *22:5 0.000247407
15 *18:13 *22:5 0.0022006
*RES
1 s_axi_wdata[19] *22:5 45.7428 
2 *22:5 *1626:A0 16.2505 
*END

*D_NET *23 0.00320226
*CONN
*P s_axi_wdata[1] I
*I *1608:A0 I *D sky130_fd_sc_hd__mux2_1
*CAP
1 s_axi_wdata[1] 0.000535719
2 *1608:A0 0.000535719
3 *1608:A0 *1568:B1 0.000221634
4 *1608:A0 *24:9 0.000934332
5 *1608:A0 *580:101 0.000251941
6 *1625:A0 *1608:A0 0.000571585
7 *12:17 *1608:A0 0.000151333
*RES
1 s_axi_wdata[1] *1608:A0 41.1764 
*END

*D_NET *24 0.00469485
*CONN
*P s_axi_wdata[20] I
*I *1627:A0 I *D sky130_fd_sc_hd__mux2_1
*CAP
1 s_axi_wdata[20] 0.000841056
2 *1627:A0 0
3 *24:9 0.000841056
4 *24:9 *1565:A1 0.000340311
5 *24:9 *1585:A1 6.79209e-05
6 *24:9 *1585:B1 6.62868e-05
7 *24:9 *1627:A1 0.0003114
8 *24:9 *1646:D 6.134e-05
9 *24:9 *29:13 0.000712815
10 *24:9 *83:20 0
11 *24:9 *108:180 1.15172e-05
12 *24:9 *580:101 0.000184318
13 *24:9 *580:103 0.000277984
14 *24:9 *587:94 4.45156e-05
15 *1608:A0 *24:9 0.000934332
*RES
1 s_axi_wdata[20] *24:9 45.9606 
2 *24:9 *1627:A0 9.3 
*END

*D_NET *25 0.00357226
*CONN
*P s_axi_wdata[21] I
*I *1628:A0 I *D sky130_fd_sc_hd__mux2_1
*CAP
1 s_axi_wdata[21] 0.000506693
2 *1628:A0 0.000506693
3 *1628:A0 *1586:A 0.000182605
4 *1628:A0 *1587:A 1.04066e-05
5 *1628:A0 *1587:B 2.06112e-05
6 *1628:A0 *1587:C 2.65133e-05
7 *1628:A0 *1589:A1 0.00018077
8 *1628:A0 *1590:A2 3.69047e-06
9 *1628:A0 *1601:A0 5.30637e-06
10 *1628:A0 *1612:A1 1.43864e-05
11 *1628:A0 *1628:A1 5.33005e-05
12 *1628:A0 *1668:D 0.000131297
13 *1628:A0 *36:5 0.000353462
14 *1628:A0 *80:112 4.74038e-05
15 *1628:A0 *105:200 0
16 *1628:A0 *626:98 0.000393883
17 *20:13 *1628:A0 0.00113524
*RES
1 s_axi_wdata[21] *1628:A0 43.8497 
*END

*D_NET *26 0.00488702
*CONN
*P s_axi_wdata[22] I
*I *1629:A0 I *D sky130_fd_sc_hd__mux2_1
*CAP
1 s_axi_wdata[22] 0.000961003
2 *1629:A0 7.9233e-05
3 *26:5 0.00104024
4 *1629:A0 *1549:A 1.74352e-05
5 *1629:A0 *1629:A1 0.000105163
6 *26:5 *1572:B 0
7 *26:5 *1601:S0 0.000587097
8 *26:5 *1633:A1 4.58192e-05
9 *26:5 *1636:A0 0
10 *26:5 *1640:A0 0.000339603
11 *26:5 *1658:D 0.000352919
12 *26:5 *1673:D 4.35131e-05
13 *26:5 *1677:D 0.000320714
14 *26:5 *106:26 0
15 *26:5 *109:34 4.00121e-05
16 *14:5 *26:5 0.000954275
*RES
1 s_axi_wdata[22] *26:5 45.7428 
2 *26:5 *1629:A0 16.8198 
*END

*D_NET *27 0.00328602
*CONN
*P s_axi_wdata[23] I
*I *1630:A0 I *D sky130_fd_sc_hd__mux2_1
*CAP
1 s_axi_wdata[23] 0.00054044
2 *1630:A0 0.00054044
3 *1630:A0 *1630:S 0.000161947
4 *1630:A0 *1631:A0 0.00119416
5 *1630:A0 *1631:A1 9.90431e-05
6 *1630:A0 *29:13 0.000345166
7 *1630:A0 *31:7 0
8 *1630:A0 *50:19 0.000336066
9 *1630:A0 *580:74 4.58976e-05
10 *1630:A0 *580:446 2.28598e-05
*RES
1 s_axi_wdata[23] *1630:A0 42.5873 
*END

*D_NET *28 0.00261956
*CONN
*P s_axi_wdata[24] I
*I *1631:A0 I *D sky130_fd_sc_hd__mux2_1
*CAP
1 s_axi_wdata[24] 0.000434552
2 *1631:A0 0.000434552
3 *1631:A0 *31:7 0.000328767
4 *1631:A0 *580:74 0.000227532
5 *1630:A0 *1631:A0 0.00119416
*RES
1 s_axi_wdata[24] *1631:A0 35.3348 
*END

*D_NET *29 0.00469702
*CONN
*P s_axi_wdata[25] I
*I *1632:A0 I *D sky130_fd_sc_hd__mux2_1
*CAP
1 s_axi_wdata[25] 0.000934813
2 *1632:A0 3.91267e-05
3 *29:13 0.00097394
4 *1632:A0 *1567:B1 9.66977e-05
5 *1632:A0 *625:183 0
6 *29:13 *1565:A1 0.000340905
7 *29:13 *1565:B1 9.25014e-06
8 *29:13 *1596:B1 0
9 *29:13 *1681:D 9.25014e-06
10 *29:13 *31:7 0
11 *29:13 *83:20 0.000176293
12 *29:13 *83:31 0.000108717
13 *29:13 *84:34 5.74562e-05
14 *29:13 *105:186 0.000227532
15 *29:13 *105:194 0.00027808
16 *29:13 *580:95 0
17 *29:13 *581:198 0
18 *29:13 *586:32 0.000152063
19 *1630:A0 *29:13 0.000345166
20 *11:22 *29:13 0.000234916
21 *24:9 *29:13 0.000712815
*RES
1 s_axi_wdata[25] *29:13 49.4705 
2 *29:13 *1632:A0 15.1119 
*END

*D_NET *30 0.00543157
*CONN
*P s_axi_wdata[26] I
*I *1633:A0 I *D sky130_fd_sc_hd__mux2_1
*CAP
1 s_axi_wdata[26] 0.000715806
2 *1633:A0 0.00023738
3 *30:13 0.000953186
4 *1633:A0 *1572:A 0
5 *1633:A0 *1624:A1 2.47753e-05
6 *1633:A0 *1633:A1 1.40306e-05
7 *1633:A0 *80:93 0.0004348
8 *1633:A0 *105:200 4.05356e-05
9 *1633:A0 *637:33 0.000139907
10 *30:13 *1588:B 0
11 *30:13 *1615:A1 0.000175818
12 *30:13 *1650:D 1.02504e-05
13 *30:13 *34:9 0.000664793
14 *30:13 *105:194 9.71197e-05
15 *30:13 *105:200 0.000299452
16 *30:13 *109:14 0.000259203
17 *30:13 *637:33 0.000190664
18 *1650:RESET_B *30:13 6.95093e-05
19 *1660:RESET_B *30:13 0.000581032
20 *1682:RESET_B *1633:A0 0
21 *2:63 *30:13 4.00025e-05
22 *2:65 *30:13 0.000153598
23 *2:69 *30:13 6.19347e-05
24 *2:73 *30:13 0.000219592
25 *18:13 *30:13 1.78161e-05
26 *20:13 *1633:A0 4.45768e-06
27 *20:13 *30:13 2.59093e-05
*RES
1 s_axi_wdata[26] *30:13 48.4804 
2 *30:13 *1633:A0 21.9436 
*END

*D_NET *31 0.00656139
*CONN
*P s_axi_wdata[27] I
*I *1634:A0 I *D sky130_fd_sc_hd__mux2_1
*CAP
1 s_axi_wdata[27] 0.000469988
2 *1634:A0 0.000851493
3 *31:7 0.00132148
4 *1634:A0 *1559:A1 0.000155476
5 *1634:A0 *1559:A2 2.6949e-05
6 *1634:A0 *1560:A2 0
7 *1634:A0 *1560:B1 5.25974e-05
8 *1634:A0 *1570:A2 0.000221557
9 *1634:A0 *1570:A3 0.000137993
10 *1634:A0 *1600:A2 0
11 *1634:A0 *1603:C1 9.89637e-05
12 *1634:A0 *1605:A 6.8646e-06
13 *1634:A0 *1634:A1 3.18676e-05
14 *1634:A0 *1643:CLK 7.40249e-05
15 *1634:A0 *1644:D 5.70616e-05
16 *1634:A0 *581:20 0
17 *1634:A0 *581:65 0.000118249
18 *1634:A0 *581:187 4.06087e-07
19 *1634:A0 *583:18 0
20 *1634:A0 *586:22 0.000440737
21 *1634:A0 *588:10 5.67352e-05
22 *1634:A0 *588:18 6.27272e-06
23 *1634:A0 *625:128 0.000134514
24 *1634:A0 *625:139 0.000387459
25 *1634:A0 *626:10 0
26 *1634:A0 *626:24 0.000150476
27 *1634:A0 *634:10 0
28 *31:7 *1568:B2 0.000481166
29 *31:7 *1570:A3 9.32348e-05
30 *31:7 *1614:A0 0.000413234
31 *31:7 *1616:A1 0.000167691
32 *31:7 *580:95 0.000270921
33 *31:7 *586:22 8.85664e-07
34 *1605:C *1634:A0 4.32182e-06
35 *1630:A0 *31:7 0
36 *1631:A0 *31:7 0.000328767
37 *29:13 *31:7 0
*RES
1 s_axi_wdata[27] *31:7 25.2353 
2 *31:7 *1634:A0 49.4314 
*END

*D_NET *32 0.00132294
*CONN
*P s_axi_wdata[28] I
*I *1635:A0 I *D sky130_fd_sc_hd__mux2_1
*CAP
1 s_axi_wdata[28] 0.000230716
2 *1635:A0 0.000230716
3 *1635:A0 *1616:A0 0.000392757
4 *1635:A0 *1635:A1 1.92905e-05
5 *1635:A0 *1635:S 4.0342e-06
6 *1635:A0 *1665:CLK 0
7 *1635:A0 *1665:D 3.81416e-06
8 *1635:A0 *50:11 4.88515e-05
9 *1625:A0 *1635:A0 0.000392757
*RES
1 s_axi_wdata[28] *1635:A0 27.7605 
*END

*D_NET *33 0.00350768
*CONN
*P s_axi_wdata[29] I
*I *1636:A0 I *D sky130_fd_sc_hd__mux2_1
*CAP
1 s_axi_wdata[29] 0.000982248
2 *1636:A0 0.000982248
3 *1636:A0 *1601:A1 0
4 *1636:A0 *1601:A3 0
5 *1636:A0 *1636:A1 3.48705e-05
6 *1636:A0 *1636:S 0.000356015
7 *1636:A0 *1640:A0 0.000336327
8 *1636:A0 *1642:A0 0.000247407
9 *1636:A0 *1642:A1 0
10 *1636:A0 *1677:D 0.000141829
11 *1636:A0 *109:34 0
12 *1636:A0 *580:347 0.000422735
13 *1636:A0 *662:8 4.00276e-06
14 *1636:A0 *664:8 0
15 *1689:RESET_B *1636:A0 0
16 *26:5 *1636:A0 0
*RES
1 s_axi_wdata[29] *1636:A0 49.32 
*END

*D_NET *34 0.00409959
*CONN
*P s_axi_wdata[2] I
*I *1609:A0 I *D sky130_fd_sc_hd__mux2_1
*CAP
1 s_axi_wdata[2] 0.000729533
2 *1609:A0 0
3 *34:9 0.000729533
4 *34:9 *1571:A 0.000194156
5 *34:9 *1589:B1 0.000251108
6 *34:9 *1611:A0 0.000396024
7 *34:9 *1615:A1 0.000177465
8 *34:9 *1669:CLK 9.95421e-05
9 *34:9 *1672:CLK 6.81828e-05
10 *34:9 *106:26 0
11 *34:9 *109:14 0.000259203
12 *34:9 *580:192 5.17614e-05
13 *34:9 *586:65 0.000194076
14 *34:9 *637:33 0.000160291
15 *1660:RESET_B *34:9 5.54856e-05
16 *2:73 *34:9 1.40849e-05
17 *2:75 *34:9 5.43491e-05
18 *30:13 *34:9 0.000664793
*RES
1 s_axi_wdata[2] *34:9 42.6438 
2 *34:9 *1609:A0 9.3 
*END

*D_NET *35 0.00605104
*CONN
*P s_axi_wdata[30] I
*I *1637:A0 I *D sky130_fd_sc_hd__mux2_1
*CAP
1 s_axi_wdata[30] 0.000746479
2 *1637:A0 0.000358743
3 *35:7 0.00110522
4 *1637:A0 *1577:C 8.50152e-05
5 *1637:A0 *1582:A 0.00020112
6 *1637:A0 *1649:D 1.91418e-05
7 *1637:A0 *1670:D 8.81701e-05
8 *1637:A0 *108:192 0.000103974
9 *1637:A0 *109:107 0
10 *1637:A0 *625:55 0.0001827
11 *1637:A0 *625:65 9.54798e-06
12 *1637:A0 *626:42 7.17333e-05
13 *1637:A0 *630:12 0
14 *35:7 *1564:A1 0.000146133
15 *35:7 *1581:B 9.29046e-05
16 *35:7 *1582:A 2.86826e-05
17 *35:7 *1584:B1 0.00066865
18 *35:7 *1617:A1 4.28286e-05
19 *35:7 *1674:D 0.000103974
20 *35:7 *109:107 0
21 *35:7 *588:85 0.000290777
22 *35:7 *630:12 6.48403e-05
23 *1617:A0 *35:7 0.000579149
24 *1674:RESET_B *1637:A0 0.000180859
25 *1674:RESET_B *35:7 5.27003e-05
26 *2:185 *1637:A0 0.000124689
27 *2:623 *1637:A0 9.49131e-05
28 *16:15 *35:7 0.000608094
*RES
1 s_axi_wdata[30] *35:7 37.7106 
2 *35:7 *1637:A0 30.3966 
*END

*D_NET *36 0.00563271
*CONN
*P s_axi_wdata[31] I
*I *1638:A0 I *D sky130_fd_sc_hd__mux2_1
*CAP
1 s_axi_wdata[31] 0.000963133
2 *1638:A0 0
3 *36:5 0.000963133
4 *36:5 *1575:A1 0
5 *36:5 *1575:A2 9.98998e-06
6 *36:5 *1586:A 0.000196728
7 *36:5 *1612:A1 0.000205271
8 *36:5 *1628:S 0.000176971
9 *36:5 *1629:A1 0.000125103
10 *36:5 *1641:A0 0.000328767
11 *36:5 *1647:CLK 0.000360816
12 *36:5 *1659:CLK 0
13 *36:5 *80:112 0.000398719
14 *36:5 *580:183 0
15 *36:5 *580:198 0.000196262
16 *36:5 *622:14 2.14378e-05
17 *36:5 *625:82 0.000290799
18 *36:5 *626:98 0.000163261
19 *36:5 *642:12 0.000288101
20 *1628:A0 *36:5 0.000353462
21 *1658:RESET_B *36:5 6.84519e-05
22 *1661:RESET_B *36:5 0.000397863
23 *1682:RESET_B *36:5 0.000118339
24 *2:656 *36:5 6.10018e-06
25 *14:5 *36:5 0
*RES
1 s_axi_wdata[31] *36:5 50.3715 
2 *36:5 *1638:A0 13.8 
*END

*D_NET *37 0.00478081
*CONN
*P s_axi_wdata[3] I
*I *1610:A0 I *D sky130_fd_sc_hd__mux2_1
*CAP
1 s_axi_wdata[3] 0.00107498
2 *1610:A0 0
3 *37:9 0.00107498
4 *37:9 *1574:C1 4.5539e-05
5 *37:9 *1576:A 1.02504e-05
6 *37:9 *1666:D 0.000497447
7 *37:9 *1669:D 8.15095e-05
8 *37:9 *40:11 0.00106077
9 *37:9 *106:113 0.000326473
10 *37:9 *580:307 0.000178656
11 *37:9 *654:8 7.46814e-05
12 *37:9 *655:12 0.000108111
13 *18:11 *37:9 0.000247407
14 *22:5 *37:9 0
*RES
1 s_axi_wdata[3] *37:9 46.6586 
2 *37:9 *1610:A0 13.8 
*END

*D_NET *38 0.00177472
*CONN
*P s_axi_wdata[4] I
*I *1611:A0 I *D sky130_fd_sc_hd__mux2_1
*CAP
1 s_axi_wdata[4] 0.000247981
2 *1611:A0 0.000247981
3 *1611:A0 *1584:B2 0.000309266
4 *1611:A0 *1615:A0 0.00031346
5 *1611:A0 *50:11 0.000104534
6 *1611:A0 *586:65 0.000155476
7 *34:9 *1611:A0 0.000396024
*RES
1 s_axi_wdata[4] *1611:A0 30.0377 
*END

*D_NET *39 0.00377912
*CONN
*P s_axi_wdata[5] I
*I *1612:A0 I *D sky130_fd_sc_hd__mux2_1
*CAP
1 s_axi_wdata[5] 0.000746049
2 *1612:A0 0
3 *39:17 0.000746049
4 *39:17 *1584:B2 8.43535e-06
5 *39:17 *1586:A 0
6 *39:17 *1586:B 0
7 *39:17 *1612:A1 0.000442635
8 *39:17 *1615:A0 0.000456339
9 *39:17 *1615:S 3.34366e-05
10 *39:17 *1619:A1 1.92789e-05
11 *39:17 *1641:A0 0
12 *39:17 *1668:CLK 0.000229456
13 *39:17 *1668:D 0.000164425
14 *39:17 *1677:D 0
15 *39:17 *50:11 0.000299357
16 *39:17 *580:318 2.59355e-05
17 *39:17 *580:339 0.000247771
18 *1619:A0 *39:17 2.72859e-05
19 *1661:RESET_B *39:17 0.000127396
20 *1668:RESET_B *39:17 0
21 *2:22 *39:17 0
22 *14:5 *39:17 0.000205271
*RES
1 s_axi_wdata[5] *39:17 45.9507 
2 *39:17 *1612:A0 9.3 
*END

*D_NET *40 0.00745271
*CONN
*P s_axi_wdata[6] I
*I *1613:A0 I *D sky130_fd_sc_hd__mux2_1
*CAP
1 s_axi_wdata[6] 0.000915841
2 *1613:A0 0.000374146
3 *40:11 0.00128999
4 *1613:A0 *1579:A1 2.87584e-05
5 *1613:A0 *1579:B2 0.000335605
6 *1613:A0 *1580:A3 0.000265453
7 *1613:A0 *1610:S 8.17274e-05
8 *1613:A0 *1659:CLK 1.58213e-06
9 *1613:A0 *1659:D 8.3722e-05
10 *1613:A0 *580:135 0.000254042
11 *1613:A0 *580:137 4.08637e-05
12 *1613:A0 *580:139 0.000137983
13 *1613:A0 *586:86 0
14 *40:11 *1576:A 0.000100831
15 *40:11 *1666:D 0.00049331
16 *40:11 *1672:D 0.000128506
17 *40:11 *1684:CLK 0
18 *40:11 *580:297 5.98596e-05
19 *40:11 *582:44 6.23386e-05
20 *40:11 *587:32 4.46186e-06
21 *40:11 *587:39 5.23071e-05
22 *40:11 *587:50 0.000184329
23 *40:11 *588:47 0.000715497
24 *40:11 *654:8 8.49318e-05
25 *40:11 *655:12 0.000106403
26 *1623:A0 *40:11 0.000538366
27 *2:81 *1613:A0 5.10822e-05
28 *37:9 *40:11 0.00106077
*RES
1 s_axi_wdata[6] *40:11 49.0844 
2 *40:11 *1613:A0 36.9585 
*END

*D_NET *41 0.00380084
*CONN
*P s_axi_wdata[7] I
*I *1614:A0 I *D sky130_fd_sc_hd__mux2_1
*CAP
1 s_axi_wdata[7] 0.000629188
2 *1614:A0 0.000629188
3 *1614:A0 uart_tx_out 0.0005401
4 *1614:A0 *1565:A1 0
5 *1614:A0 *1565:A2 2.58611e-05
6 *1614:A0 *1565:A3 2.26989e-05
7 *1614:A0 *1568:A1 4.7312e-05
8 *1614:A0 *1568:A2 1.22159e-05
9 *1614:A0 *1568:B1 2.59355e-05
10 *1614:A0 *1568:B2 0.000481166
11 *1614:A0 *1596:A1 0.000307494
12 *1614:A0 *1596:A2 2.60539e-05
13 *1614:A0 *1596:B1 0.000186393
14 *1614:A0 *1616:A1 0.000179663
15 *1614:A0 *1645:D 7.40943e-05
16 *1614:A0 *51:24 7.73861e-05
17 *1614:A0 *586:22 0.000103981
18 *1614:A0 *586:132 1.88761e-05
19 *11:14 *1614:A0 0
20 *31:7 *1614:A0 0.000413234
*RES
1 s_axi_wdata[7] *1614:A0 47.3645 
*END

*D_NET *42 0.00229736
*CONN
*P s_axi_wdata[8] I
*I *1615:A0 I *D sky130_fd_sc_hd__mux2_1
*CAP
1 s_axi_wdata[8] 0.000351972
2 *1615:A0 0.000351972
3 *1615:A0 *1615:A1 9.60939e-05
4 *1615:A0 *1615:S 0.000235435
5 *1615:A0 *1660:D 0.000134719
6 *1615:A0 *1664:D 0
7 *1615:A0 *586:65 0.00032682
8 *1611:A0 *1615:A0 0.00031346
9 *2:22 *1615:A0 3.05475e-05
10 *39:17 *1615:A0 0.000456339
*RES
1 s_axi_wdata[8] *1615:A0 35.409 
*END

*D_NET *43 0.0025138
*CONN
*P s_axi_wdata[9] I
*I *1616:A0 I *D sky130_fd_sc_hd__mux2_1
*CAP
1 s_axi_wdata[9] 0.000413519
2 *1616:A0 0.000413519
3 *1616:A0 *1635:S 2.95726e-05
4 *1616:A0 *50:11 6.78243e-05
5 *1616:A0 *50:19 0.000272371
6 *1625:A0 *1616:A0 2.09826e-05
7 *1635:A0 *1616:A0 0.000392757
8 *12:17 *1616:A0 0.000482601
9 *17:11 *1616:A0 0.000420651
*RES
1 s_axi_wdata[9] *1616:A0 36.3496 
*END

*D_NET *44 0.00456096
*CONN
*P s_axi_wstrb[0] I
*I *1639:A0 I *D sky130_fd_sc_hd__mux2_1
*CAP
1 s_axi_wstrb[0] 0.000741317
2 *1639:A0 3.56175e-05
3 *44:23 0.000776935
4 *1639:A0 *1601:A0 8.6229e-06
5 *1639:A0 *661:10 4.62147e-05
6 *44:23 *1547:A 0.000410342
7 *44:23 *1561:A 8.15095e-05
8 *44:23 *1565:A2 0
9 *44:23 *1607:A1 0.000247622
10 *44:23 *1639:S 0.000464424
11 *44:23 *1663:D 8.16635e-05
12 *44:23 *49:19 0.000449077
13 *44:23 *51:24 0
14 *44:23 *84:47 0.000235734
15 *44:23 *640:6 0.000225815
16 *44:23 *658:14 0.000348227
17 *1656:RESET_B *44:23 0.000129507
18 *1657:RESET_B *44:23 0.000144563
19 *1663:RESET_B *44:23 3.67419e-05
20 *1679:RESET_B *44:23 0
21 *1:21 *44:23 9.70284e-05
*RES
1 s_axi_wstrb[0] *44:23 49.916 
2 *44:23 *1639:A0 14.8149 
*END

*D_NET *45 0.00198253
*CONN
*P s_axi_wstrb[1] I
*I *1640:A0 I *D sky130_fd_sc_hd__mux2_1
*CAP
1 s_axi_wstrb[1] 0.00036253
2 *1640:A0 0.00036253
3 *1640:A0 *1640:A1 5.71472e-05
4 *1640:A0 *1640:S 5.71472e-05
5 *1640:A0 *1641:A0 0.000137983
6 *1640:A0 *1641:A1 0.000137505
7 *1640:A0 *1642:A1 0.000153947
8 *1640:A0 *1642:S 3.03304e-05
9 *1640:A0 *580:373 7.48301e-06
10 *1636:A0 *1640:A0 0.000336327
11 *26:5 *1640:A0 0.000339603
*RES
1 s_axi_wstrb[1] *1640:A0 31.9684 
*END

*D_NET *46 0.00160138
*CONN
*P s_axi_wstrb[2] I
*I *1641:A0 I *D sky130_fd_sc_hd__mux2_1
*CAP
1 s_axi_wstrb[2] 0.00028763
2 *1641:A0 0.00028763
3 *1641:A0 *1641:A1 5.33005e-05
4 *1641:A0 *580:339 0.000132977
5 *1641:A0 *580:341 4.43256e-05
6 *1640:A0 *1641:A0 0.000137983
7 *1661:RESET_B *1641:A0 0
8 *14:5 *1641:A0 0.000328767
9 *36:5 *1641:A0 0.000328767
10 *39:17 *1641:A0 0
*RES
1 s_axi_wstrb[2] *1641:A0 29.0724 
*END

*D_NET *47 0.00168809
*CONN
*P s_axi_wstrb[3] I
*I *1642:A0 I *D sky130_fd_sc_hd__mux2_1
*CAP
1 s_axi_wstrb[3] 0.000587197
2 *1642:A0 0.000587197
3 *1642:A0 *1642:S 3.24668e-05
4 *1642:A0 *1689:D 0.000106467
5 *1642:A0 *580:373 0.000127353
6 *1636:A0 *1642:A0 0.000247407
*RES
1 s_axi_wstrb[3] *1642:A0 43.3694 
*END

*D_NET *48 0.00174367
*CONN
*P s_axi_wvalid I
*I *1547:A I *D sky130_fd_sc_hd__nand2_1
*CAP
1 s_axi_wvalid 0.000283233
2 *1547:A 0.000283233
3 *1547:A *1565:A2 3.67257e-05
4 *1547:A *1607:A1 7.43578e-06
5 *1547:A *50:19 0.000265453
6 *1547:A *580:74 2.59355e-05
7 *1547:A *580:78 2.77173e-05
8 *1:21 *1547:A 0.000403593
9 *44:23 *1547:A 0.000410342
*RES
1 s_axi_wvalid *1547:A 30.4833 
*END

*D_NET *49 0.0130736
*CONN
*P uart_clk I
*I *1108:A I *D sky130_fd_sc_hd__clkbuf_16
*CAP
1 uart_clk 0.00410692
2 *1108:A 0.000107636
3 *49:19 0.00421456
4 *1108:A *1524:B 0
5 *1108:A *1535:D 0.000351498
6 *1108:A *1541:D 9.89733e-05
7 *1108:A *82:92 0
8 *1108:A *508:22 0.000165586
9 *1108:A *514:10 7.33494e-06
10 *49:19 uart_tx_out 0.000491227
11 *49:19 *1519:B 0.000115473
12 *49:19 *1532:C 0.000107784
13 *49:19 *1561:A 4.58192e-05
14 *49:19 *1562:B 0.000141492
15 *49:19 *1607:A1 0.00012917
16 *49:19 *1656:D 8.32242e-05
17 *49:19 *51:24 0.00207878
18 *49:19 *520:10 0.000286879
19 *1:21 *49:19 9.22174e-05
20 *44:23 *49:19 0.000449077
*RES
1 uart_clk *49:19 44.3536 
2 *49:19 *1108:A 20.4956 
*END

*D_NET *50 0.0536374
*CONN
*P uart_rst_n I
*I *1503:RESET_B I *D sky130_fd_sc_hd__dfrtp_1
*I *1485:RESET_B I *D sky130_fd_sc_hd__dfrtp_1
*I *1489:RESET_B I *D sky130_fd_sc_hd__dfrtp_1
*I *1504:RESET_B I *D sky130_fd_sc_hd__dfrtp_1
*I *1509:RESET_B I *D sky130_fd_sc_hd__dfrtp_1
*I *1482:RESET_B I *D sky130_fd_sc_hd__dfrtp_1
*I *1506:RESET_B I *D sky130_fd_sc_hd__dfrtp_1
*I *1502:RESET_B I *D sky130_fd_sc_hd__dfrtp_1
*I *1483:RESET_B I *D sky130_fd_sc_hd__dfrtp_1
*I *1488:RESET_B I *D sky130_fd_sc_hd__dfrtp_1
*I *1507:RESET_B I *D sky130_fd_sc_hd__dfrtp_1
*I *1480:SET_B I *D sky130_fd_sc_hd__dfstp_2
*I *1505:RESET_B I *D sky130_fd_sc_hd__dfrtp_1
*I *1500:RESET_B I *D sky130_fd_sc_hd__dfrtp_1
*I *1486:RESET_B I *D sky130_fd_sc_hd__dfrtp_4
*I *1487:RESET_B I *D sky130_fd_sc_hd__dfrtp_1
*I *1097:RESET_B I *D sky130_fd_sc_hd__dfrtp_1
*I *1481:RESET_B I *D sky130_fd_sc_hd__dfrtp_1
*I *1095:SET_B I *D sky130_fd_sc_hd__dfstp_2
*I *1096:RESET_B I *D sky130_fd_sc_hd__dfrtp_1
*I *1098:RESET_B I *D sky130_fd_sc_hd__dfrtp_1
*I *1771:RESET_B I *D sky130_fd_sc_hd__dfrtp_1
*I *1761:RESET_B I *D sky130_fd_sc_hd__dfrtp_1
*I *1099:RESET_B I *D sky130_fd_sc_hd__dfrtp_1
*I *1766:RESET_B I *D sky130_fd_sc_hd__dfrtp_1
*I *1764:RESET_B I *D sky130_fd_sc_hd__dfrtp_1
*I *1788:RESET_B I *D sky130_fd_sc_hd__dfrtp_1
*I *1790:RESET_B I *D sky130_fd_sc_hd__dfrtp_1
*I *1789:RESET_B I *D sky130_fd_sc_hd__dfrtp_1
*I *1791:RESET_B I *D sky130_fd_sc_hd__dfrtp_1
*I *1792:RESET_B I *D sky130_fd_sc_hd__dfrtp_1
*I *1769:RESET_B I *D sky130_fd_sc_hd__dfrtp_1
*I *1778:RESET_B I *D sky130_fd_sc_hd__dfrtp_1
*I *1776:RESET_B I *D sky130_fd_sc_hd__dfrtp_1
*I *1775:RESET_B I *D sky130_fd_sc_hd__dfrtp_1
*I *1773:RESET_B I *D sky130_fd_sc_hd__dfrtp_1
*I *1772:RESET_B I *D sky130_fd_sc_hd__dfrtp_1
*I *1780:RESET_B I *D sky130_fd_sc_hd__dfrtp_1
*I *1777:RESET_B I *D sky130_fd_sc_hd__dfrtp_1
*I *1785:RESET_B I *D sky130_fd_sc_hd__dfrtp_1
*I *1782:RESET_B I *D sky130_fd_sc_hd__dfrtp_1
*I *1781:RESET_B I *D sky130_fd_sc_hd__dfrtp_1
*I *1783:RESET_B I *D sky130_fd_sc_hd__dfrtp_1
*I *1106:RESET_B I *D sky130_fd_sc_hd__dfrtp_1
*I *1765:RESET_B I *D sky130_fd_sc_hd__dfrtp_1
*I *1104:RESET_B I *D sky130_fd_sc_hd__dfrtp_1
*I *1102:RESET_B I *D sky130_fd_sc_hd__dfrtp_1
*I *1763:RESET_B I *D sky130_fd_sc_hd__dfrtp_1
*I *1101:RESET_B I *D sky130_fd_sc_hd__dfrtp_1
*I *1103:RESET_B I *D sky130_fd_sc_hd__dfrtp_1
*I *1762:RESET_B I *D sky130_fd_sc_hd__dfrtp_1
*I *1768:RESET_B I *D sky130_fd_sc_hd__dfrtp_1
*I *1767:RESET_B I *D sky130_fd_sc_hd__dfrtp_1
*I *1100:RESET_B I *D sky130_fd_sc_hd__dfrtp_1
*I *1105:RESET_B I *D sky130_fd_sc_hd__dfrtp_1
*I *1784:RESET_B I *D sky130_fd_sc_hd__dfrtp_1
*I *1786:RESET_B I *D sky130_fd_sc_hd__dfrtp_1
*I *1787:RESET_B I *D sky130_fd_sc_hd__dfrtp_1
*I *1779:RESET_B I *D sky130_fd_sc_hd__dfrtp_1
*I *1774:RESET_B I *D sky130_fd_sc_hd__dfrtp_1
*I *1501:RESET_B I *D sky130_fd_sc_hd__dfrtp_1
*I *1484:RESET_B I *D sky130_fd_sc_hd__dfrtp_1
*I *1508:RESET_B I *D sky130_fd_sc_hd__dfrtp_1
*I *1770:SET_B I *D sky130_fd_sc_hd__dfstp_2
*CAP
1 uart_rst_n 0.00101105
2 *1503:RESET_B 0.000104246
3 *1485:RESET_B 0
4 *1489:RESET_B 0
5 *1504:RESET_B 0
6 *1509:RESET_B 2.61742e-05
7 *1482:RESET_B 0
8 *1506:RESET_B 2.9978e-05
9 *1502:RESET_B 0
10 *1483:RESET_B 0
11 *1488:RESET_B 0
12 *1507:RESET_B 6.90053e-05
13 *1480:SET_B 0
14 *1505:RESET_B 0.000274829
15 *1500:RESET_B 3.13277e-05
16 *1486:RESET_B 0
17 *1487:RESET_B 2.61467e-05
18 *1097:RESET_B 0.000115325
19 *1481:RESET_B 9.55157e-05
20 *1095:SET_B 5.12009e-05
21 *1096:RESET_B 2.53678e-05
22 *1098:RESET_B 0
23 *1771:RESET_B 0
24 *1761:RESET_B 7.213e-05
25 *1099:RESET_B 0.00040947
26 *1766:RESET_B 2.22747e-05
27 *1764:RESET_B 5.14282e-05
28 *1788:RESET_B 1.65546e-05
29 *1790:RESET_B 0.000139708
30 *1789:RESET_B 0.000482877
31 *1791:RESET_B 0
32 *1792:RESET_B 0
33 *1769:RESET_B 3.1449e-05
34 *1778:RESET_B 0
35 *1776:RESET_B 0
36 *1775:RESET_B 0
37 *1773:RESET_B 2.62119e-05
38 *1772:RESET_B 0
39 *1780:RESET_B 5.72059e-06
40 *1777:RESET_B 0.000640237
41 *1785:RESET_B 0.000876495
42 *1782:RESET_B 0.000383884
43 *1781:RESET_B 5.02653e-05
44 *1783:RESET_B 1.23586e-05
45 *1106:RESET_B 4.9131e-05
46 *1765:RESET_B 2.89709e-05
47 *1104:RESET_B 1.89862e-05
48 *1102:RESET_B 0
49 *1763:RESET_B 0.00026088
50 *1101:RESET_B 0.000349021
51 *1103:RESET_B 0
52 *1762:RESET_B 0
53 *1768:RESET_B 0.000259577
54 *1767:RESET_B 0.000595503
55 *1100:RESET_B 6.01057e-05
56 *1105:RESET_B 0
57 *1784:RESET_B 9.54169e-05
58 *1786:RESET_B 0
59 *1787:RESET_B 9.05538e-05
60 *1779:RESET_B 0.000454518
61 *1774:RESET_B 0.00058651
62 *1501:RESET_B 0
63 *1484:RESET_B 0.000345591
64 *1508:RESET_B 0.000558318
65 *1770:SET_B 8.28813e-05
66 *50:531 0.000642294
67 *50:471 0.000584409
68 *50:467 0.000313293
69 *50:457 0.000470667
70 *50:443 0.000445906
71 *50:425 0.000238319
72 *50:327 0.000319198
73 *50:291 0.000300065
74 *50:263 0.000407412
75 *50:256 0.00012277
76 *50:250 0.000430558
77 *50:239 0.000449572
78 *50:210 0.000396032
79 *50:208 0.000220881
80 *50:201 0.000414961
81 *50:197 0.000557189
82 *50:187 0.000356432
83 *50:180 0.000263505
84 *50:171 0.000348423
85 *50:167 0.00054084
86 *50:154 0.000297891
87 *50:146 0.000733028
88 *50:131 0.000114592
89 *50:129 0.000152261
90 *50:127 0.000265692
91 *50:125 0.000457877
92 *50:121 0.000440723
93 *50:117 0.000400687
94 *50:115 0.000252461
95 *50:111 0.00022178
96 *50:109 0.000710868
97 *50:107 0.000319111
98 *50:105 0.000382324
99 *50:103 0.000245411
100 *50:101 0.000256832
101 *50:99 0.0007997
102 *50:97 0.000322605
103 *50:95 0.000191402
104 *50:93 0.000238224
105 *50:91 0.000478343
106 *50:89 0.000284829
107 *50:87 0.000276596
108 *50:85 0.000135864
109 *50:83 0.000146091
110 *50:81 0.000243933
111 *50:72 0.000312839
112 *50:70 0.000212907
113 *50:68 0.00023008
114 *50:66 0.000435494
115 *50:60 0.000363969
116 *50:54 0.00030233
117 *50:52 0.000258039
118 *50:40 0.000370156
119 *50:19 0.00182177
120 *50:11 0.00219162
121 *1095:SET_B *1095:D 2.58757e-05
122 *1095:SET_B *765:36 1.27739e-05
123 *1096:RESET_B *1085:A_N 0.000179995
124 *1096:RESET_B *765:36 0.000179995
125 *1097:RESET_B *1096:D 3.87603e-05
126 *1097:RESET_B *69:14 3.34295e-05
127 *1097:RESET_B *69:24 4.5539e-05
128 *1097:RESET_B *103:25 6.17167e-05
129 *1099:RESET_B *1087:A1 0.000138106
130 *1099:RESET_B *1481:CLK 0
131 *1099:RESET_B *1697:A0 0.00030669
132 *1099:RESET_B *1697:A1 0.000133012
133 *1099:RESET_B *1708:A 0.000223599
134 *1099:RESET_B *1761:CLK 0
135 *1099:RESET_B *1761:D 1.40415e-05
136 *1099:RESET_B *67:12 0
137 *1099:RESET_B *443:20 0
138 *1100:RESET_B *1100:D 3.46117e-05
139 *1100:RESET_B *95:10 0.000309121
140 *1100:RESET_B *120:6 0.000100931
141 *1101:RESET_B *1103:D 0
142 *1101:RESET_B *71:29 2.87631e-05
143 *1104:RESET_B *1099:CLK 0.000124469
144 *1104:RESET_B *105:16 0.000134719
145 *1106:RESET_B *70:14 4.92917e-05
146 *1106:RESET_B *100:42 9.62151e-05
147 *1481:RESET_B *1495:D 0.000138106
148 *1481:RESET_B *74:16 0
149 *1481:RESET_B *443:20 0
150 *1484:RESET_B *1476:A 4.46186e-06
151 *1484:RESET_B *1498:D 4.92917e-05
152 *1484:RESET_B *1503:CLK 0
153 *1484:RESET_B *1508:D 0
154 *1484:RESET_B *450:16 0
155 *1487:RESET_B *1487:D 4.96254e-05
156 *1487:RESET_B *442:12 2.52796e-05
157 *1503:RESET_B *1476:A 0.000229889
158 *1503:RESET_B *1503:CLK 0
159 *1503:RESET_B *1503:D 9.84891e-05
160 *1505:RESET_B *1459:B 4.34749e-05
161 *1505:RESET_B *1500:D 7.48091e-05
162 *1505:RESET_B *1505:CLK 9.66688e-05
163 *1505:RESET_B *75:6 0.000151643
164 *1505:RESET_B *75:8 1.39726e-05
165 *1505:RESET_B *445:36 4.96155e-05
166 *1506:RESET_B *1501:D 2.52688e-05
167 *1506:RESET_B *447:12 2.52688e-05
168 *1507:RESET_B *1477:B 0
169 *1507:RESET_B *1502:D 9.3559e-05
170 *1507:RESET_B *448:16 1.58801e-05
171 *1508:RESET_B *1476:A 0.000515497
172 *1508:RESET_B *1498:CLK 0
173 *1508:RESET_B *1498:D 0.000223215
174 *1508:RESET_B *1503:CLK 2.09915e-05
175 *1508:RESET_B *463:8 1.63902e-05
176 *1508:RESET_B *474:10 3.67257e-05
177 *1509:RESET_B *1473:A 2.52688e-05
178 *1509:RESET_B *1475:B 4.96155e-05
179 *1761:RESET_B *1086:A 5.33005e-05
180 *1761:RESET_B *1096:CLK 0.000126439
181 *1761:RESET_B *1761:CLK 5.25816e-05
182 *1761:RESET_B *67:12 9.4724e-05
183 *1761:RESET_B *67:16 0.000136182
184 *1761:RESET_B *74:20 4.58976e-05
185 *1763:RESET_B *1103:D 0
186 *1763:RESET_B *1699:A0 1.83929e-05
187 *1763:RESET_B *1763:D 0.000159769
188 *1763:RESET_B *71:29 0.000176624
189 *1763:RESET_B *123:8 0
190 *1764:RESET_B *1713:A1 0
191 *1764:RESET_B *1764:D 3.71789e-06
192 *1764:RESET_B *67:12 0
193 *1765:RESET_B *1091:A0 2.77659e-05
194 *1766:RESET_B *1700:A0 4.70821e-05
195 *1766:RESET_B *1764:D 0
196 *1767:RESET_B *1088:A1 2.44318e-05
197 *1767:RESET_B *1105:D 0
198 *1767:RESET_B *1703:A0 5.19842e-06
199 *1767:RESET_B *1767:CLK 0.000158747
200 *1767:RESET_B *1767:D 8.28343e-05
201 *1767:RESET_B *67:35 0.000126629
202 *1767:RESET_B *95:10 8.66063e-05
203 *1767:RESET_B *100:42 0
204 *1767:RESET_B *120:6 5.33433e-05
205 *1767:RESET_B *125:8 7.85796e-05
206 *1767:RESET_B *722:35 0
207 *1768:RESET_B *1704:A0 0
208 *1768:RESET_B *1716:B 0
209 *1768:RESET_B *1767:D 0
210 *1768:RESET_B *1768:D 0
211 *1768:RESET_B *72:74 1.97381e-05
212 *1769:RESET_B *1706:B 9.42929e-05
213 *1770:SET_B *1498:CLK 0
214 *1770:SET_B *1770:D 1.19309e-05
215 *1774:RESET_B *1732:A 7.40249e-05
216 *1774:RESET_B *1738:B1 5.20904e-05
217 *1777:RESET_B *1723:B 0
218 *1777:RESET_B *1725:A 1.57931e-05
219 *1777:RESET_B *1725:C 0
220 *1777:RESET_B *1734:A 0
221 *1777:RESET_B *1743:A 3.67142e-05
222 *1777:RESET_B *1744:B 0
223 *1777:RESET_B *1777:D 0
224 *1777:RESET_B *701:18 1.91512e-05
225 *1777:RESET_B *701:20 0.000117487
226 *1780:RESET_B *72:22 2.0714e-05
227 *1781:RESET_B *72:50 0.000122047
228 *1782:RESET_B *1725:D 0.00026807
229 *1784:RESET_B *100:42 0
230 *1785:RESET_B *1723:C 0
231 *1785:RESET_B *1725:A 0
232 *1785:RESET_B *1725:D 0
233 *1785:RESET_B *72:50 0
234 *1785:RESET_B *72:61 0
235 *1785:RESET_B *72:74 0
236 *1785:RESET_B *696:14 0
237 *1787:RESET_B *1787:CLK 0
238 *1788:RESET_B *1753:B1 0
239 *1788:RESET_B *1788:D 3.71789e-06
240 *1789:RESET_B *1757:A1 0.000217798
241 *1789:RESET_B *1759:B1 5.39166e-06
242 *1789:RESET_B *1759:C1 0
243 *1789:RESET_B *73:6 4.88515e-05
244 *1789:RESET_B *73:12 4.53889e-05
245 *1789:RESET_B *699:6 0
246 *1789:RESET_B *734:6 9.1677e-05
247 *1789:RESET_B *752:14 7.48091e-05
248 *1789:RESET_B *752:49 0
249 *1789:RESET_B *752:55 0
250 *1790:RESET_B *1755:A1 0.000176964
251 *1790:RESET_B *1757:A1 0.000129379
252 *1790:RESET_B *1758:A2 0.000136958
253 *1790:RESET_B *1790:D 0.000175892
254 *1790:RESET_B *714:14 2.44286e-05
255 *1790:RESET_B *720:20 1.28904e-05
256 *50:11 *1584:A1 0
257 *50:11 *1584:B1 5.381e-05
258 *50:11 *1584:B2 0.000180433
259 *50:11 *1586:B 6.96405e-05
260 *50:11 *1619:A1 2.51343e-06
261 *50:11 *1635:S 0
262 *50:11 *580:339 0.000103974
263 *50:11 *586:42 1.44094e-05
264 *50:11 *586:52 0.000325252
265 *50:19 *1498:D 0.000102197
266 *50:19 *1562:A 2.59355e-05
267 *50:19 *1565:A2 2.15245e-05
268 *50:19 *1607:A1 1.02936e-05
269 *50:19 *1630:S 0
270 *50:19 *1631:A1 3.67257e-05
271 *50:19 *1688:D 0.000103802
272 *50:19 *1770:CLK 3.96556e-05
273 *50:19 *645:10 1.92905e-05
274 *50:52 *1478:C 0
275 *50:52 *1508:D 0
276 *50:54 *1478:C 0
277 *50:54 *1485:D 0
278 *50:54 *1508:D 0
279 *50:60 *1478:C 0
280 *50:60 *1479:A 0
281 *50:60 *1485:D 0
282 *50:66 *1475:A 0
283 *50:66 *1475:B 0
284 *50:66 *1478:C 0
285 *50:66 *1479:A 0
286 *50:66 *1485:D 4.1331e-06
287 *50:66 *1504:D 0.000320038
288 *50:68 *1475:A 0
289 *50:68 *1475:B 0
290 *50:68 *1482:D 3.17067e-05
291 *50:68 *444:575 0
292 *50:70 *1482:D 7.07676e-05
293 *50:70 *444:575 0
294 *50:72 *1482:D 2.58997e-05
295 *50:72 *1501:D 0
296 *50:72 *444:575 0
297 *50:72 *472:8 0.000123668
298 *50:81 *1115:A 0
299 *50:81 *444:562 0
300 *50:81 *444:575 0
301 *50:81 *472:8 0.000403707
302 *50:83 *1502:D 0
303 *50:83 *472:8 0.000132297
304 *50:85 *1502:D 0
305 *50:85 *448:16 6.16958e-05
306 *50:85 *472:8 0.000276816
307 *50:87 *448:16 5.61377e-05
308 *50:87 *470:12 2.49484e-05
309 *50:87 *472:8 0.000108118
310 *50:89 *1469:C 0
311 *50:89 *444:20 0
312 *50:89 *448:16 2.97756e-05
313 *50:89 *470:12 0.000208529
314 *50:91 *1469:B 4.97121e-06
315 *50:91 *1469:C 0
316 *50:91 *1487:D 6.90018e-05
317 *50:91 *470:12 3.17163e-05
318 *50:93 *1487:D 5.8955e-05
319 *50:93 *69:115 0
320 *50:95 *1487:D 0.000111382
321 *50:95 *69:115 0
322 *50:97 *1487:D 4.89268e-05
323 *50:97 *69:115 0
324 *50:99 *1468:A 9.66673e-05
325 *50:99 *1487:D 1.97381e-05
326 *50:99 *455:25 0
327 *50:101 *1083:B2 0.000140321
328 *50:101 *74:12 0
329 *50:103 *1083:B2 2.11543e-05
330 *50:103 *1085:C 4.96037e-05
331 *50:105 *1085:C 1.52978e-05
332 *50:105 *765:21 8.99419e-05
333 *50:107 *1729:B1 0.000154769
334 *50:107 *1759:A3 0
335 *50:107 *1771:D 1.78447e-05
336 *50:107 *752:37 3.38229e-05
337 *50:107 *752:91 7.36267e-05
338 *50:107 *753:46 0
339 *50:107 *765:21 3.88892e-05
340 *50:109 *752:37 5.70616e-05
341 *50:109 *753:46 0
342 *50:111 *1706:B 0
343 *50:111 *1731:A2 8.18029e-05
344 *50:111 *1791:D 0
345 *50:111 *752:10 0
346 *50:111 *752:37 1.97381e-05
347 *50:111 *753:21 0
348 *50:111 *753:40 0
349 *50:115 *1706:B 0
350 *50:115 *1731:A2 0.000122047
351 *50:117 *1706:B 0
352 *50:117 *1731:A2 5.83304e-05
353 *50:117 *73:20 0
354 *50:121 *1706:B 0
355 *50:121 *1742:B 0.000255045
356 *50:121 *1749:B 0.000157906
357 *50:121 *693:14 0
358 *50:121 *697:10 0
359 *50:125 *1741:C 0.000112115
360 *50:125 *1742:B 0.000100501
361 *50:125 *1778:CLK 0
362 *50:125 *72:129 0
363 *50:125 *693:14 0
364 *50:127 *1741:B 0
365 *50:127 *1741:C 8.39096e-05
366 *50:127 *1775:D 0.000128875
367 *50:127 *72:10 0
368 *50:127 *72:12 0
369 *50:127 *72:129 0
370 *50:127 *706:12 0
371 *50:129 *1732:A 1.17968e-05
372 *50:129 *1734:B 5.7616e-05
373 *50:129 *1741:B 0
374 *50:129 *745:10 4.11196e-05
375 *50:131 *1732:A 0.000148617
376 *50:131 *1738:B1 8.81437e-05
377 *50:131 *745:10 2.00751e-05
378 *50:146 *1723:C 0
379 *50:146 *1737:A 4.00276e-06
380 *50:146 *1738:A2 0
381 *50:146 *1772:D 0
382 *50:146 *1774:D 0.000263524
383 *50:146 *72:22 0.000288448
384 *50:146 *704:16 0
385 *50:154 *72:22 0.000171023
386 *50:154 *72:28 0.000119016
387 *50:167 *1724:A 0
388 *50:167 *1724:B 0
389 *50:167 *1724:D 2.02508e-05
390 *50:167 *1779:CLK 0.000126251
391 *50:167 *72:28 9.33978e-07
392 *50:180 *1787:CLK 0
393 *50:180 *70:22 0
394 *50:180 *70:24 0
395 *50:187 *70:22 0
396 *50:197 *70:14 0
397 *50:197 *70:16 0
398 *50:197 *70:22 0
399 *50:197 *100:42 0
400 *50:201 *1109:A 2.06741e-05
401 *50:201 *67:35 0
402 *50:201 *70:14 6.47792e-05
403 *50:201 *100:42 0
404 *50:201 *105:22 0
405 *50:208 *67:35 0
406 *50:208 *105:22 0
407 *50:239 *1698:A0 0.000130436
408 *50:239 *67:35 0
409 *50:239 *105:22 0
410 *50:250 *1091:A0 0.000110201
411 *50:250 *1103:D 0
412 *50:250 *1698:A0 6.22185e-05
413 *50:250 *67:24 0
414 *50:250 *105:22 0
415 *50:250 *123:8 0
416 *50:256 *1091:A0 4.70078e-05
417 *50:256 *1103:D 0
418 *50:256 *1765:D 0.000134719
419 *50:256 *105:22 0.000133012
420 *50:263 *1765:D 0.000196728
421 *50:263 *105:22 0.000205264
422 *50:291 *1099:CLK 0.000108118
423 *50:291 *1110:A 0.000162514
424 *50:291 *1765:D 0.000236657
425 *50:291 *97:12 0
426 *50:291 *105:16 0.000178424
427 *50:291 *105:22 0.000493437
428 *50:291 *298:78 0
429 *50:327 *72:28 4.73656e-05
430 *50:327 *72:39 0.000205979
431 *50:327 *72:50 3.34366e-05
432 *50:443 *1755:A1 0.000145226
433 *50:443 *714:14 8.48609e-05
434 *50:443 *734:6 1.65169e-05
435 *50:457 *1694:A 0.000396285
436 *50:457 *1713:A1 1.17968e-05
437 *50:457 *1713:A2 0.000201971
438 *50:457 *1715:A1 0
439 *50:457 *1715:S 0
440 *50:457 *1788:D 0.00015234
441 *50:457 *734:6 0.00015684
442 *50:457 *734:10 1.32552e-05
443 *50:457 *752:55 3.99614e-06
444 *50:457 *760:8 0
445 *50:467 *1096:CLK 9.25014e-06
446 *50:467 *1697:S 0
447 *50:467 *1700:A1 4.76219e-05
448 *50:467 *1713:A1 5.99221e-05
449 *50:467 *1764:D 6.82179e-05
450 *50:467 *67:12 0.000106403
451 *50:467 *760:8 0
452 *50:471 *1700:A0 0.000444673
453 *50:471 *1764:D 0
454 *50:471 *67:12 1.07719e-05
455 *50:531 *1083:B1 0
456 *50:531 *74:12 1.40415e-05
457 *50:531 *74:14 0
458 *50:531 *74:16 0
459 *50:531 *103:8 0
460 *50:531 *443:14 0
461 *50:531 *443:20 0
462 *1498:RESET_B *1508:RESET_B 5.66647e-05
463 *1498:RESET_B *1770:SET_B 9.89637e-05
464 *1547:A *50:19 0.000265453
465 *1611:A0 *50:11 0.000104534
466 *1616:A0 *50:11 6.78243e-05
467 *1616:A0 *50:19 0.000272371
468 *1630:A0 *50:19 0.000336066
469 *1635:A0 *50:11 4.88515e-05
470 *1688:RESET_B *50:19 0.000260716
471 *9:11 *50:11 0.000356002
472 *12:17 *50:11 0.000647998
473 *12:17 *50:19 0.000197176
474 *39:17 *50:11 0.000299357
*RES
1 uart_rst_n *50:11 44.2527 
2 *50:11 *50:19 44.1289 
3 *50:19 *1770:SET_B 7.61883 
4 *50:19 *1508:RESET_B 24.1412 
5 *1508:RESET_B *50:40 4.5 
6 *50:40 *1484:RESET_B 11.6659 
7 *1484:RESET_B *50:52 6.77724 
8 *50:52 *50:54 4.802 
9 *50:54 *50:60 3.19309 
10 *50:60 *50:66 7.82182 
11 *50:66 *50:68 4.802 
12 *50:68 *50:70 2.27724 
13 *50:70 *50:72 4.802 
14 *50:72 *1501:RESET_B 4.5 
15 *50:72 *50:81 7.64855 
16 *50:81 *50:83 2.27724 
17 *50:83 *50:85 4.802 
18 *50:85 *50:87 2.69803 
19 *50:87 *50:89 6.48518 
20 *50:89 *50:91 4.38121 
21 *50:91 *50:93 2.69803 
22 *50:93 *50:95 4.802 
23 *50:95 *50:97 2.27724 
24 *50:97 *50:99 6.90598 
25 *50:99 *50:101 4.802 
26 *50:101 *50:103 2.27724 
27 *50:103 *50:105 4.802 
28 *50:105 *50:107 6.90598 
29 *50:107 *50:109 2.69803 
30 *50:109 *50:111 4.38121 
31 *50:111 *50:115 3.01982 
32 *50:115 *50:117 4.802 
33 *50:117 *50:121 7.64855 
34 *50:121 *50:125 7.64855 
35 *50:125 *50:127 6.90598 
36 *50:127 *50:129 2.27724 
37 *50:129 *50:131 4.802 
38 *50:131 *1774:RESET_B 6.77724 
39 *1774:RESET_B *50:146 17.958 
40 *50:146 *50:154 11.1089 
41 *50:154 *1779:RESET_B 4.5 
42 *1779:RESET_B *50:167 13.4035 
43 *50:167 *50:171 6.3812 
44 *50:171 *1787:RESET_B 6.77724 
45 *50:171 *50:180 4.802 
46 *50:180 *1786:RESET_B 4.5 
47 *50:180 *50:187 2.27724 
48 *50:187 *1784:RESET_B 6.86387 
49 *50:187 *50:197 4.802 
50 *50:197 *50:201 8.21786 
51 *50:201 *1105:RESET_B 4.5 
52 *50:201 *50:208 2.27724 
53 *50:208 *50:210 4.5 
54 *50:210 *1100:RESET_B 4.0718 
55 *50:210 *1767:RESET_B 14.1461 
56 *1767:RESET_B *1768:RESET_B 15.906 
57 *50:208 *50:239 4.802 
58 *50:239 *1762:RESET_B 4.5 
59 *50:239 *50:250 14.8466 
60 *50:250 *50:256 8.65844 
61 *50:256 *1103:RESET_B 4.5 
62 *50:256 *50:263 3.53962 
63 *50:263 *1101:RESET_B 6.74011 
64 *1101:RESET_B *1763:RESET_B 8.36638 
65 *50:263 *50:291 15.3961 
66 *50:291 *1102:RESET_B 4.5 
67 *50:291 *1104:RESET_B 6.77724 
68 *50:250 *1765:RESET_B 1.25001 
69 *50:197 *1106:RESET_B 6.86387 
70 *50:167 *1783:RESET_B 0.655944 
71 *50:154 *50:327 4.802 
72 *50:327 *1781:RESET_B 6.77724 
73 *50:327 *1782:RESET_B 9.31438 
74 *1782:RESET_B *1785:RESET_B 15.906 
75 *1785:RESET_B *1777:RESET_B 26.5867 
76 *50:146 *1780:RESET_B 0.655944 
77 *50:131 *1772:RESET_B 4.5 
78 *50:129 *1773:RESET_B 5.24258 
79 *50:127 *1775:RESET_B 4.5 
80 *50:125 *1776:RESET_B 4.5 
81 *50:121 *1778:RESET_B 4.5 
82 *50:117 *1769:RESET_B 5.72525 
83 *50:115 *1792:RESET_B 4.5 
84 *50:111 *1791:RESET_B 4.5 
85 *50:109 *1789:RESET_B 18.2501 
86 *1789:RESET_B *50:425 4.5 
87 *50:425 *1790:RESET_B 10.9976 
88 *50:425 *50:443 8.50992 
89 *50:443 *1788:RESET_B 0.655944 
90 *50:443 *50:457 18.8565 
91 *50:457 *1764:RESET_B 5.72525 
92 *50:457 *50:467 4.802 
93 *50:467 *50:471 10.3664 
94 *50:471 *1766:RESET_B 0.655944 
95 *50:471 *1099:RESET_B 22.8243 
96 *50:467 *1761:RESET_B 9.14111 
97 *50:107 *1771:RESET_B 4.5 
98 *50:105 *1098:RESET_B 4.5 
99 *50:103 *1096:RESET_B 6.86387 
100 *50:101 *1095:SET_B 5.89852 
101 *50:99 *50:531 14.9208 
102 *50:531 *1481:RESET_B 2.93318 
103 *50:531 *1097:RESET_B 13.3812 
104 *50:97 *1487:RESET_B 5.72525 
105 *50:95 *1486:RESET_B 4.5 
106 *50:93 *1500:RESET_B 5.24258 
107 *50:91 *1505:RESET_B 14.2649 
108 *50:89 *1480:SET_B 4.5 
109 *50:87 *1507:RESET_B 6.86387 
110 *50:85 *1488:RESET_B 4.5 
111 *50:83 *1483:RESET_B 4.5 
112 *50:81 *1502:RESET_B 4.5 
113 *50:70 *1506:RESET_B 5.72525 
114 *50:68 *1482:RESET_B 4.5 
115 *50:66 *1509:RESET_B 5.72525 
116 *50:60 *1504:RESET_B 4.5 
117 *50:54 *1489:RESET_B 4.5 
118 *50:52 *1485:RESET_B 4.5 
119 *50:40 *1503:RESET_B 9.14111 
*END

*D_NET *51 0.00875735
*CONN
*P uart_tx_out O
*I *1770:Q O *D sky130_fd_sc_hd__dfstp_2
*CAP
1 uart_tx_out 0.000257763
2 *1770:Q 0.00145309
3 *51:24 0.00171085
4 uart_tx_out *1656:D 8.49318e-05
5 *51:24 *1465:B 0.000142875
6 *51:24 *1493:D 0.0001434
7 *51:24 *1529:A 0
8 *51:24 *1529:B 0
9 *51:24 *1562:B 9.71378e-06
10 *51:24 *1568:A1 2.09826e-05
11 *51:24 *1601:A0 0.00172032
12 *51:24 *1770:CLK 2.59355e-05
13 *51:24 *84:47 0
14 *1614:A0 uart_tx_out 0.0005401
15 *1614:A0 *51:24 7.73861e-05
16 *44:23 *51:24 0
17 *49:19 uart_tx_out 0.000491227
18 *49:19 *51:24 0.00207878
*RES
1 *1770:Q *51:24 34.6277 
2 *51:24 uart_tx_out 16.9184 
*END

*D_NET *54 0.000245414
*CONN
*I *1097:D I *D sky130_fd_sc_hd__dfrtp_1
*I *1086:Y O *D sky130_fd_sc_hd__clkinv_1
*CAP
1 *1097:D 6.22688e-05
2 *1086:Y 6.22688e-05
3 *1097:D *1096:CLK 2.02508e-05
4 *1097:D *74:16 6.87574e-05
5 *1097:D *74:18 3.18676e-05
*RES
1 *1086:Y *1097:D 21.0505 
*END

*D_NET *55 0.000761617
*CONN
*I *1095:D I *D sky130_fd_sc_hd__dfstp_2
*I *1083:X O *D sky130_fd_sc_hd__a22o_1
*CAP
1 *1095:D 0.00024011
2 *1083:X 0.00024011
3 *1095:D *1083:A2 7.40249e-05
4 *1095:D *1083:B1 0.000120519
5 *1095:D *115:14 6.09773e-05
6 *1095:D *765:36 0
7 *1095:D *765:62 0
8 *1095:SET_B *1095:D 2.58757e-05
*RES
1 *1083:X *1095:D 35.1743 
*END

*D_NET *56 0.000984593
*CONN
*I *1098:D I *D sky130_fd_sc_hd__dfrtp_1
*I *1084:X O *D sky130_fd_sc_hd__a21o_1
*CAP
1 *1098:D 0.000241718
2 *1084:X 0.000241718
3 *1098:D *1696:A 0.000238804
4 *1098:D *67:12 6.33295e-05
5 *1098:D *116:10 0.000110411
6 *1098:D *127:14 7.07676e-05
7 *1098:D *765:21 1.78447e-05
*RES
1 *1084:X *1098:D 38.0208 
*END

*D_NET *57 0.000567776
*CONN
*I *1099:D I *D sky130_fd_sc_hd__dfrtp_1
*I *1087:X O *D sky130_fd_sc_hd__mux2_1
*CAP
1 *1099:D 0.000104708
2 *1087:X 0.000104708
3 *1099:D *1092:A1 8.07313e-05
4 *1099:D *1092:S 8.90314e-05
5 *1099:D *1702:A0 5.62995e-05
6 *1099:D *94:28 0
7 *1099:D *105:16 0.000132297
*RES
1 *1087:X *1099:D 32.8971 
*END

*D_NET *58 0.000942842
*CONN
*I *1100:D I *D sky130_fd_sc_hd__dfrtp_1
*I *1088:X O *D sky130_fd_sc_hd__mux2_1
*CAP
1 *1100:D 0.000302715
2 *1088:X 0.000302715
3 *1100:D *1100:CLK 0.000203377
4 *1100:D *1762:CLK 2.09915e-05
5 *1100:D *1762:D 0
6 *1100:D *95:10 2.34001e-05
7 *1100:D *120:6 5.5033e-05
8 *1100:D *374:10 0
9 *1100:RESET_B *1100:D 3.46117e-05
*RES
1 *1088:X *1100:D 29.1013 
*END

*D_NET *59 0.000283473
*CONN
*I *1101:D I *D sky130_fd_sc_hd__dfrtp_1
*I *1089:X O *D sky130_fd_sc_hd__mux2_1
*CAP
1 *1101:D 9.67019e-05
2 *1089:X 9.67019e-05
3 *1101:D *1089:A0 5.33433e-05
4 *1101:D *1765:CLK 0
5 *1101:D *1765:D 0
6 *1101:D *71:33 3.67257e-05
7 *1101:D *298:82 0
*RES
1 *1089:X *1101:D 30.7683 
*END

*D_NET *60 0.000851768
*CONN
*I *1102:D I *D sky130_fd_sc_hd__dfrtp_1
*I *1090:X O *D sky130_fd_sc_hd__mux2_1
*CAP
1 *1102:D 0.000137993
2 *1090:X 0.000137993
3 *1102:D *97:12 0.000327318
4 *1102:D *298:78 0.000199612
5 *1102:D *373:6 4.88515e-05
*RES
1 *1090:X *1102:D 35.1248 
*END

*D_NET *61 0.000915108
*CONN
*I *1103:D I *D sky130_fd_sc_hd__dfrtp_1
*I *1091:X O *D sky130_fd_sc_hd__mux2_1
*CAP
1 *1103:D 0.000430037
2 *1091:X 0.000430037
3 *1103:D *1091:A0 0
4 *1103:D *71:29 0
5 *1103:D *71:33 0
6 *1103:D *123:8 5.5033e-05
7 *1101:RESET_B *1103:D 0
8 *1763:RESET_B *1103:D 0
9 *50:250 *1103:D 0
10 *50:256 *1103:D 0
*RES
1 *1091:X *1103:D 29.6149 
*END

*D_NET *62 0.000287141
*CONN
*I *1104:D I *D sky130_fd_sc_hd__dfrtp_1
*I *1092:X O *D sky130_fd_sc_hd__mux2_1
*CAP
1 *1104:D 8.40907e-05
2 *1092:X 8.40907e-05
3 *1104:D *1266:S 1.92905e-05
4 *1104:D *298:72 2.89114e-05
5 *1104:D *298:78 7.0758e-05
*RES
1 *1092:X *1104:D 30.6198 
*END

*D_NET *63 0.000935524
*CONN
*I *1105:D I *D sky130_fd_sc_hd__dfrtp_1
*I *1093:X O *D sky130_fd_sc_hd__mux2_1
*CAP
1 *1105:D 0.000396334
2 *1093:X 0.000396334
3 *1105:D *1094:A0 0
4 *1105:D *1094:A1 0
5 *1105:D *1094:S 0
6 *1105:D *95:10 0
7 *1105:D *100:42 0.000142856
8 *1767:RESET_B *1105:D 0
*RES
1 *1093:X *1105:D 29.0456 
*END

*D_NET *64 0.00112497
*CONN
*I *1106:D I *D sky130_fd_sc_hd__dfrtp_1
*I *1094:X O *D sky130_fd_sc_hd__mux2_1
*CAP
1 *1106:D 0.000221626
2 *1094:X 0.000221626
3 *1106:D *1094:A0 7.47234e-05
4 *1106:D *1094:A1 7.45454e-05
5 *1106:D *70:14 3.4879e-05
6 *1106:D *70:75 0.000353629
7 *1106:D *100:42 5.04705e-05
8 *1106:D *105:22 8.32171e-05
9 *1106:D *105:24 1.02504e-05
*RES
1 *1094:X *1106:D 37.3773 
*END

*D_NET *65 0.000218891
*CONN
*I *1084:A1 I *D sky130_fd_sc_hd__a21o_1
*I *1081:Y O *D sky130_fd_sc_hd__clkinv_1
*CAP
1 *1084:A1 3.64043e-05
2 *1081:Y 3.64043e-05
3 *1084:A1 *1081:A 0.00010096
4 *1084:A1 *1084:A2 3.18676e-05
5 *1084:A1 *115:14 1.32552e-05
*RES
1 *1081:Y *1084:A1 20.4812 
*END

*D_NET *66 0.00104532
*CONN
*I *1083:B1 I *D sky130_fd_sc_hd__a22o_1
*I *1082:Y O *D sky130_fd_sc_hd__nand2b_1
*CAP
1 *1083:B1 0.000256824
2 *1082:Y 0.000256824
3 *1083:B1 *1083:A1 0.000157906
4 *1083:B1 *1083:B2 0.000156191
5 *1083:B1 *74:12 1.92905e-05
6 *1083:B1 *74:14 7.77652e-05
7 *1083:B1 *765:36 0
8 *1095:D *1083:B1 0.000120519
9 *50:531 *1083:B1 0
*RES
1 *1082:Y *1083:B1 37.303 
*END

*D_NET *67 0.0130861
*CONN
*I *1086:A I *D sky130_fd_sc_hd__clkinv_1
*I *1092:S I *D sky130_fd_sc_hd__mux2_1
*I *1087:S I *D sky130_fd_sc_hd__mux2_1
*I *1089:S I *D sky130_fd_sc_hd__mux2_1
*I *1090:S I *D sky130_fd_sc_hd__mux2_1
*I *1091:S I *D sky130_fd_sc_hd__mux2_1
*I *1093:S I *D sky130_fd_sc_hd__mux2_1
*I *1094:S I *D sky130_fd_sc_hd__mux2_1
*I *1088:S I *D sky130_fd_sc_hd__mux2_1
*I *1085:Y O *D sky130_fd_sc_hd__nand3b_1
*CAP
1 *1086:A 4.07427e-05
2 *1092:S 0.000453443
3 *1087:S 0
4 *1089:S 0
5 *1090:S 0.000124076
6 *1091:S 0
7 *1093:S 7.27238e-05
8 *1094:S 0.00038485
9 *1088:S 0
10 *1085:Y 0.00072598
11 *67:94 0.000528745
12 *67:70 0.000351426
13 *67:35 0.000711046
14 *67:24 0.000502517
15 *67:20 0.000364732
16 *67:18 0.000650727
17 *67:16 0.000625767
18 *67:12 0.0010095
19 *1086:A *1700:A0 2.42516e-05
20 *1086:A *74:20 1.21258e-05
21 *1090:S *1089:A1 5.52238e-05
22 *1090:S *1090:A1 1.92789e-05
23 *1090:S *1110:A 0.000181085
24 *1092:S *1087:A1 0.000137007
25 *1092:S *1092:A1 2.016e-05
26 *1092:S *1266:S 3.69047e-06
27 *1092:S *1702:A0 3.80953e-06
28 *1092:S *1761:D 0
29 *1092:S *94:28 0
30 *1093:S *1094:A1 0
31 *1093:S *1703:A0 5.71472e-05
32 *1093:S *100:42 0.000142856
33 *1093:S *125:8 1.21289e-05
34 *1094:S *1094:A1 0.000364837
35 *1094:S *100:42 0
36 *67:12 *1084:A2 6.05161e-06
37 *67:12 *1085:A_N 0.000269784
38 *67:12 *1096:CLK 5.9563e-05
39 *67:12 *1096:D 1.72894e-05
40 *67:12 *1098:CLK 5.39629e-06
41 *67:12 *1694:A 0
42 *67:12 *1696:A 0
43 *67:12 *1700:A0 2.88018e-06
44 *67:12 *1708:A 0
45 *67:12 *1755:A1 0
46 *67:12 *1764:D 1.02504e-05
47 *67:12 *116:10 3.69047e-06
48 *67:12 *127:10 0.000130801
49 *67:12 *722:6 0.000115611
50 *67:12 *722:12 0.00015
51 *67:12 *722:105 0.000268682
52 *67:12 *758:8 1.92789e-05
53 *67:12 *765:36 9.01258e-06
54 *67:16 *1700:A0 0.00037136
55 *67:16 *1761:CLK 0.00027101
56 *67:18 *1090:A1 0
57 *67:18 *1702:A0 0
58 *67:18 *1702:S 0.000372962
59 *67:18 *1715:A0 9.54627e-05
60 *67:18 *1766:D 0.000133012
61 *67:18 *71:16 0
62 *67:20 *1702:S 2.24646e-05
63 *67:20 *1715:A0 1.76039e-05
64 *67:20 *1763:D 0.000103974
65 *67:20 *722:46 0.000397134
66 *67:20 *759:14 0.000158258
67 *67:24 *1698:A0 0.000132391
68 *67:24 *722:35 0.000230158
69 *67:24 *722:46 0.000395172
70 *67:24 *759:14 0.000170931
71 *67:35 *1767:D 0
72 *67:35 *722:35 0
73 *67:70 *1089:A1 0.000294478
74 *67:70 *1090:A1 0
75 *67:70 *1699:A0 0.00022566
76 *67:70 *1701:S 5.52238e-05
77 *67:70 *1715:A0 0
78 *67:70 *1765:D 0.000310286
79 *67:94 *1702:A0 0
80 *67:94 *1761:D 0
81 *67:94 *94:28 0
82 *1098:D *67:12 6.33295e-05
83 *1099:D *1092:S 8.90314e-05
84 *1099:RESET_B *67:12 0
85 *1105:D *1094:S 0
86 *1761:RESET_B *1086:A 5.33005e-05
87 *1761:RESET_B *67:12 9.4724e-05
88 *1761:RESET_B *67:16 0.000136182
89 *1764:RESET_B *67:12 0
90 *1767:RESET_B *67:35 0.000126629
91 *50:201 *67:35 0
92 *50:208 *67:35 0
93 *50:239 *67:35 0
94 *50:250 *67:24 0
95 *50:467 *67:12 0.000106403
96 *50:471 *67:12 1.07719e-05
*RES
1 *1085:Y *67:12 46.4932 
2 *67:12 *67:16 17.1981 
3 *67:16 *67:18 11.9555 
4 *67:18 *67:20 7.32677 
5 *67:20 *67:24 18.1387 
6 *67:24 *1088:S 9.3 
7 *67:24 *67:35 11.4802 
8 *67:35 *1094:S 25.6317 
9 *67:35 *1093:S 16.8198 
10 *67:20 *1091:S 13.8 
11 *67:18 *67:70 13.9802 
12 *67:70 *1090:S 22.904 
13 *67:70 *1089:S 9.3 
14 *67:16 *67:94 2.17823 
15 *67:94 *1087:S 13.8 
16 *67:94 *1092:S 26.3743 
17 *67:12 *1086:A 10.6119 
*END

*D_NET *68 0.0493744
*CONN
*I *1123:A I *D sky130_fd_sc_hd__clkbuf_8
*I *1122:A I *D sky130_fd_sc_hd__clkbuf_8
*I *1121:A I *D sky130_fd_sc_hd__clkbuf_8
*I *1120:A I *D sky130_fd_sc_hd__clkbuf_8
*I *1132:A I *D sky130_fd_sc_hd__clkbuf_8
*I *1119:A I *D sky130_fd_sc_hd__clkbuf_8
*I *1118:A I *D sky130_fd_sc_hd__clkbuf_8
*I *1131:A I *D sky130_fd_sc_hd__clkbuf_8
*I *1126:A I *D sky130_fd_sc_hd__clkbuf_8
*I *1125:A I *D sky130_fd_sc_hd__clkbuf_8
*I *1124:A I *D sky130_fd_sc_hd__clkbuf_8
*I *1117:A I *D sky130_fd_sc_hd__clkbuf_8
*I *1129:A I *D sky130_fd_sc_hd__clkbuf_8
*I *1128:A I *D sky130_fd_sc_hd__clkbuf_8
*I *1127:A I *D sky130_fd_sc_hd__clkbuf_8
*I *1130:A I *D sky130_fd_sc_hd__clkbuf_8
*I *1107:X O *D sky130_fd_sc_hd__clkbuf_16
*CAP
1 *1123:A 0.000883186
2 *1122:A 0
3 *1121:A 0.000235557
4 *1120:A 2.04425e-05
5 *1132:A 0.000533582
6 *1119:A 0.000338527
7 *1118:A 6.16192e-05
8 *1131:A 0
9 *1126:A 1.41274e-05
10 *1125:A 0.000917747
11 *1124:A 0
12 *1117:A 0.000959332
13 *1129:A 0
14 *1128:A 0
15 *1127:A 0.00141488
16 *1130:A 1.33038e-05
17 *1107:X 0
18 *68:250 0.0024548
19 *68:226 0.000344449
20 *68:216 0.00304156
21 *68:179 0.000891495
22 *68:164 0.000663075
23 *68:158 0.00309346
24 *68:130 0.000995694
25 *68:126 0.00272595
26 *68:100 0.00248922
27 *68:90 0.00384574
28 *68:53 0.00282445
29 *68:28 0.00241627
30 *68:22 0.00115525
31 *68:20 0.00311718
32 *68:6 0.00229494
33 *1117:A *1285:A0 0
34 *1117:A *1285:S 0
35 *1117:A *1436:D 0.000167216
36 *1117:A *85:14 0
37 *1117:A *85:139 0
38 *1117:A *114:124 8.74334e-05
39 *1118:A *1145:S0 1.34703e-05
40 *1118:A *1178:S 9.92409e-05
41 *1118:A *79:10 5.33005e-05
42 *1119:A *1145:S0 2.17421e-05
43 *1119:A *1178:A0 0.00018372
44 *1119:A *1178:S 0.000308479
45 *1119:A *1682:CLK 0
46 *1119:A *1682:D 7.77751e-05
47 *1119:A *79:10 0.000172309
48 *1119:A *105:200 0.000244093
49 *1119:A *105:221 0
50 *1120:A *81:10 2.59355e-05
51 *1120:A *493:38 5.33005e-05
52 *1121:A *81:10 0.000175502
53 *1121:A *492:28 0.000319223
54 *1121:A *493:38 0.00116637
55 *1123:A *1546:B 0
56 *1123:A *1585:A1 6.99468e-05
57 *1123:A *1585:B1 4.58835e-05
58 *1123:A *1603:A2 5.98624e-05
59 *1123:A *580:103 0
60 *1123:A *581:16 0.000120483
61 *1123:A *582:14 0
62 *1123:A *609:28 0.00036557
63 *1123:A *626:82 6.80058e-05
64 *1125:A *1289:A1 3.92645e-05
65 *1125:A *283:8 0
66 *1126:A *299:32 2.34423e-05
67 *1126:A *309:10 4.5539e-05
68 *1127:A *1174:A1 9.49567e-05
69 *1127:A *1244:A0 0.000194518
70 *1127:A *1407:D 3.42879e-05
71 *1127:A *89:12 2.11362e-05
72 *1127:A *105:58 9.23689e-05
73 *1127:A *313:64 0
74 *1130:A *298:38 2.06112e-05
75 *1132:A *1260:A0 2.34423e-05
76 *1132:A *1395:D 2.34423e-05
77 *68:20 *1154:S0 0.000359463
78 *68:20 *1199:S 0.000193153
79 *68:20 *1443:D 0.000253469
80 *68:20 *110:16 0.000441575
81 *68:20 *307:20 0
82 *68:20 *313:25 0
83 *68:22 *1443:D 0.000507114
84 *68:22 *90:34 0
85 *68:22 *110:16 0.000629669
86 *68:28 *90:34 0
87 *68:28 *110:16 2.06178e-05
88 *68:28 *444:503 0
89 *68:53 *1407:D 2.06741e-05
90 *68:53 *313:64 0
91 *68:100 *1285:S 0
92 *68:100 *85:139 0
93 *68:100 *285:26 0
94 *68:164 *1369:CLK 1.76135e-05
95 *68:164 *92:10 0.000102221
96 *68:164 *92:16 5.51671e-05
97 *68:164 *257:10 0
98 *68:179 *1229:A0 8.7001e-05
99 *68:179 *1329:CLK 0.000176226
100 *68:179 *1369:CLK 9.31567e-05
101 *68:179 *79:10 0.000153047
102 *68:179 *79:14 0.000139417
103 *68:179 *104:157 8.21172e-05
104 *68:179 *257:10 0
105 *68:179 *355:10 0
106 *68:216 *1154:S0 7.84841e-05
107 *68:216 *1199:S 1.24381e-05
108 *68:216 *1320:S 0.000717304
109 *68:216 *104:82 6.30931e-05
110 *68:216 *313:25 0.000921033
111 *68:226 *81:10 4.34472e-05
112 *68:250 *580:103 0
113 *68:250 *580:105 0
114 *68:250 *626:82 4.5539e-05
115 *1:21 *68:216 0.00180887
116 *1:21 *68:250 0
117 *2:278 *1123:A 9.48025e-05
*RES
1 *1107:X *68:6 13.8 
2 *68:6 *68:20 22.4489 
3 *68:20 *68:22 10.9035 
4 *68:22 *68:28 6.12486 
5 *68:28 *1130:A 17.5937 
6 *68:28 *68:53 14.4304 
7 *68:53 *1127:A 26.6873 
8 *68:53 *1128:A 13.8 
9 *68:22 *1129:A 13.8 
10 *68:20 *68:90 11.2346 
11 *68:90 *68:100 11.0204 
12 *68:100 *1117:A 27.8479 
13 *68:100 *1124:A 13.8 
14 *68:90 *68:126 0.632363 
15 *68:126 *68:130 3.5792 
16 *68:130 *1125:A 21.1872 
17 *68:130 *1126:A 18.0145 
18 *68:126 *68:158 9.03974 
19 *68:158 *68:164 8.51298 
20 *68:164 *1131:A 13.8 
21 *68:164 *68:179 22.0001 
22 *68:179 *1118:A 11.7505 
23 *68:179 *1119:A 24.8446 
24 *68:158 *1132:A 19.2843 
25 *68:6 *68:216 13.7659 
26 *68:216 *68:226 12.215 
27 *68:226 *1120:A 10.0426 
28 *68:226 *1121:A 24.8446 
29 *68:216 *68:250 11.1366 
30 *68:250 *1122:A 13.8 
31 *68:250 *1123:A 25.8225 
*END

*D_NET *69 0.0229301
*CONN
*I *1116:A I *D sky130_fd_sc_hd__clkbuf_16
*I *1115:A I *D sky130_fd_sc_hd__clkbuf_16
*I *1114:A I *D sky130_fd_sc_hd__clkbuf_16
*I *1113:A I *D sky130_fd_sc_hd__clkbuf_16
*I *1112:A I *D sky130_fd_sc_hd__clkbuf_16
*I *1109:A I *D sky130_fd_sc_hd__clkbuf_16
*I *1110:A I *D sky130_fd_sc_hd__clkbuf_16
*I *1111:A I *D sky130_fd_sc_hd__clkbuf_16
*I *1108:X O *D sky130_fd_sc_hd__clkbuf_16
*CAP
1 *1116:A 0.00120086
2 *1115:A 0.000100123
3 *1114:A 0
4 *1113:A 0
5 *1112:A 5.46978e-05
6 *1109:A 2.6204e-05
7 *1110:A 0.00184035
8 *1111:A 0.000276411
9 *1108:X 0.00021937
10 *69:132 0.00278709
11 *69:115 0.00196325
12 *69:47 0.00331956
13 *69:26 0.00350166
14 *69:24 0.003039
15 *69:14 0.00148462
16 *69:12 0.000969087
17 *1109:A *105:22 0
18 *1110:A *1765:D 6.57026e-05
19 *1110:A *298:78 0
20 *1111:A *696:14 0
21 *1111:A *701:20 0
22 *1111:A *701:22 0
23 *1112:A *1719:A1 3.34295e-05
24 *1112:A *1720:B1 3.90782e-06
25 *1112:A *691:16 4.5534e-05
26 *1112:A *714:14 4.09488e-06
27 *1112:A *732:22 2.35126e-05
28 *1115:A *444:575 0
29 *1116:A *77:22 4.51691e-05
30 *1116:A *454:39 0.000182033
31 *69:12 *1490:D 0
32 *69:12 *1505:D 2.97187e-05
33 *69:12 *444:34 0.000274288
34 *69:14 *1490:D 0
35 *69:14 *1505:D 0.000115714
36 *69:14 *103:25 0
37 *69:14 *674:12 0
38 *69:24 *674:12 0
39 *69:115 *1458:A_N 2.42547e-05
40 *69:115 *1458:B 2.89016e-05
41 *69:115 *1468:A 0.000226513
42 *69:115 *1469:C 0.000116026
43 *69:115 *1487:CLK 6.03651e-05
44 *69:115 *442:12 0.000168977
45 *69:115 *442:33 9.41642e-05
46 *69:115 *444:20 1.65169e-05
47 *69:115 *471:18 3.07455e-05
48 *69:132 *1469:C 4.36551e-06
49 *69:132 *472:8 0.000110671
50 *1090:S *1110:A 0.000181085
51 *1097:RESET_B *69:14 3.34295e-05
52 *1097:RESET_B *69:24 4.5539e-05
53 *2:384 *69:12 0
54 *50:81 *1115:A 0
55 *50:93 *69:115 0
56 *50:95 *69:115 0
57 *50:97 *69:115 0
58 *50:201 *1109:A 2.06741e-05
59 *50:291 *1110:A 0.000162514
*RES
1 *1108:X *69:12 20.3471 
2 *69:12 *69:14 7.95796 
3 *69:14 *69:24 10.3231 
4 *69:24 *69:26 3.4216 
5 *69:26 *1111:A 21.915 
6 *69:26 *69:47 7.27425 
7 *69:47 *1110:A 32.5863 
8 *69:47 *1109:A 18.0145 
9 *69:24 *1112:A 21.515 
10 *69:14 *1113:A 13.8 
11 *69:12 *69:115 26.0793 
12 *69:115 *1114:A 13.8 
13 *69:115 *69:132 10.5996 
14 *69:132 *1115:A 21.515 
15 *69:132 *1116:A 24.2462 
*END

*D_NET *70 0.0059075
*CONN
*I *1762:CLK I *D sky130_fd_sc_hd__dfrtp_1
*I *1100:CLK I *D sky130_fd_sc_hd__dfrtp_1
*I *1105:CLK I *D sky130_fd_sc_hd__dfrtp_1
*I *1106:CLK I *D sky130_fd_sc_hd__dfrtp_1
*I *1784:CLK I *D sky130_fd_sc_hd__dfrtp_1
*I *1786:CLK I *D sky130_fd_sc_hd__dfrtp_1
*I *1783:CLK I *D sky130_fd_sc_hd__dfrtp_1
*I *1787:CLK I *D sky130_fd_sc_hd__dfrtp_1
*I *1109:X O *D sky130_fd_sc_hd__clkbuf_16
*CAP
1 *1762:CLK 0.000197688
2 *1100:CLK 0.00011572
3 *1105:CLK 3.18029e-05
4 *1106:CLK 0
5 *1784:CLK 0
6 *1786:CLK 9.6328e-05
7 *1783:CLK 2.95741e-05
8 *1787:CLK 0.000223741
9 *1109:X 0.000286049
10 *70:86 0.000453856
11 *70:75 0.000416161
12 *70:62 0.000243911
13 *70:24 0.000364887
14 *70:22 0.000383738
15 *70:16 0.000310593
16 *70:14 0.000420804
17 *1100:CLK *95:10 0.000193631
18 *1100:CLK *374:10 0
19 *1105:CLK *1094:A0 0
20 *1105:CLK *95:10 5.39629e-06
21 *1762:CLK *1762:D 3.18676e-05
22 *1762:CLK *105:22 0
23 *1762:CLK *374:10 1.92905e-05
24 *1787:CLK *105:30 0
25 *70:14 *1094:A1 0.000575092
26 *70:14 *100:42 0
27 *70:14 *105:24 0
28 *70:16 *105:24 0
29 *70:22 *105:24 0
30 *70:22 *105:30 0
31 *70:24 *105:30 0
32 *70:75 *1267:S 0.000354627
33 *70:75 *100:42 0.000348649
34 *70:75 *105:22 5.9533e-05
35 *70:75 *105:24 1.76135e-05
36 *70:86 *105:22 0
37 *1100:D *1100:CLK 0.000203377
38 *1100:D *1762:CLK 2.09915e-05
39 *1106:D *70:14 3.4879e-05
40 *1106:D *70:75 0.000353629
41 *1106:RESET_B *70:14 4.92917e-05
42 *1787:RESET_B *1787:CLK 0
43 *50:180 *1787:CLK 0
44 *50:180 *70:22 0
45 *50:180 *70:24 0
46 *50:187 *70:22 0
47 *50:197 *70:14 0
48 *50:197 *70:16 0
49 *50:197 *70:22 0
50 *50:201 *70:14 6.47792e-05
*RES
1 *1109:X *70:14 24.5674 
2 *70:14 *70:16 3.53962 
3 *70:16 *70:22 4.87626 
4 *70:22 *70:24 3.11883 
5 *70:24 *1787:CLK 19.6416 
6 *70:24 *1783:CLK 14.5426 
7 *70:22 *1786:CLK 16.2505 
8 *70:16 *1784:CLK 13.8 
9 *70:14 *70:62 4.5 
10 *70:62 *1106:CLK 9.3 
11 *70:62 *70:75 17.4456 
12 *70:75 *1105:CLK 14.5426 
13 *70:75 *70:86 3.53962 
14 *70:86 *1100:CLK 20.2357 
15 *70:86 *1762:CLK 19.3693 
*END

*D_NET *71 0.00703526
*CONN
*I *1764:CLK I *D sky130_fd_sc_hd__dfrtp_1
*I *1766:CLK I *D sky130_fd_sc_hd__dfrtp_1
*I *1099:CLK I *D sky130_fd_sc_hd__dfrtp_1
*I *1102:CLK I *D sky130_fd_sc_hd__dfrtp_1
*I *1104:CLK I *D sky130_fd_sc_hd__dfrtp_1
*I *1765:CLK I *D sky130_fd_sc_hd__dfrtp_1
*I *1101:CLK I *D sky130_fd_sc_hd__dfrtp_1
*I *1103:CLK I *D sky130_fd_sc_hd__dfrtp_1
*I *1763:CLK I *D sky130_fd_sc_hd__dfrtp_1
*I *1110:X O *D sky130_fd_sc_hd__clkbuf_16
*CAP
1 *1764:CLK 2.2602e-05
2 *1766:CLK 0.000105484
3 *1099:CLK 0.000175535
4 *1102:CLK 0
5 *1104:CLK 0.00019745
6 *1765:CLK 0.000209597
7 *1101:CLK 0
8 *1103:CLK 0.00020429
9 *1763:CLK 4.48328e-05
10 *1110:X 8.00117e-05
11 *71:72 0.000450652
12 *71:68 0.000634275
13 *71:64 0.000376914
14 *71:33 0.000440743
15 *71:29 0.000648056
16 *71:16 0.000552481
17 *71:14 0.000541432
18 *71:10 0.000272513
19 *1099:CLK *1092:A1 0
20 *1099:CLK *1266:S 7.07676e-05
21 *1099:CLK *97:12 0
22 *1099:CLK *105:16 0.000120411
23 *1099:CLK *298:78 0
24 *1103:CLK *1089:A0 0
25 *1103:CLK *1091:A0 0
26 *1104:CLK *1355:D 0
27 *1104:CLK *97:12 0.000102207
28 *1104:CLK *298:78 0
29 *1104:CLK *373:6 0
30 *1763:CLK *1701:A0 0
31 *1763:CLK *121:10 5.58941e-05
32 *1764:CLK *1702:A1 2.28598e-05
33 *1765:CLK *1765:D 0.000169368
34 *1765:CLK *105:22 0
35 *1766:CLK *1700:A0 1.92905e-05
36 *1766:CLK *1702:A0 5.66157e-05
37 *1766:CLK *1766:D 1.05999e-05
38 *1766:CLK *105:16 0
39 *71:10 *1702:S 5.8955e-05
40 *71:10 *1708:A 0
41 *71:14 *1090:A1 3.81416e-06
42 *71:14 *1702:A0 0.000139907
43 *71:14 *1702:A1 0.000141975
44 *71:14 *1702:S 5.33005e-05
45 *71:14 *1766:D 9.58478e-05
46 *71:16 *1090:A1 5.4115e-05
47 *71:16 *1701:A0 0
48 *71:16 *1702:A0 3.34295e-05
49 *71:16 *1715:A0 0
50 *71:16 *105:22 0
51 *71:16 *121:10 0.000119198
52 *71:16 *759:14 0
53 *71:29 *1089:A1 3.82506e-05
54 *71:29 *1699:A0 3.06878e-06
55 *71:33 *1089:A0 3.56482e-05
56 *71:33 *1089:A1 9.33978e-07
57 *71:64 *1702:A0 0.000153769
58 *71:64 *105:16 0
59 *71:64 *105:22 0
60 *71:68 *1766:D 3.69047e-06
61 *71:72 *97:12 3.97794e-05
62 *71:72 *373:6 0
63 *1101:D *1765:CLK 0
64 *1101:D *71:33 3.67257e-05
65 *1101:RESET_B *71:29 2.87631e-05
66 *1103:D *71:29 0
67 *1103:D *71:33 0
68 *1104:RESET_B *1099:CLK 0.000124469
69 *1763:RESET_B *71:29 0.000176624
70 *50:291 *1099:CLK 0.000108118
71 *67:18 *71:16 0
*RES
1 *1110:X *71:10 20.998 
2 *71:10 *71:14 10.9357 
3 *71:14 *71:16 9.00995 
4 *71:16 *1763:CLK 14.8149 
5 *71:16 *71:29 10.3664 
6 *71:29 *71:33 6.88122 
7 *71:33 *1103:CLK 15.0674 
8 *71:33 *1101:CLK 9.3 
9 *71:29 *1765:CLK 26.0476 
10 *71:14 *71:64 2.69803 
11 *71:64 *71:68 9.22775 
12 *71:68 *71:72 6.31191 
13 *71:72 *1104:CLK 24.2901 
14 *71:72 *1102:CLK 9.3 
15 *71:68 *1099:CLK 26.0476 
16 *71:64 *1766:CLK 16.6961 
17 *71:10 *1764:CLK 10.0426 
*END

*D_NET *72 0.00970941
*CONN
*I *1778:CLK I *D sky130_fd_sc_hd__dfrtp_1
*I *1776:CLK I *D sky130_fd_sc_hd__dfrtp_1
*I *1775:CLK I *D sky130_fd_sc_hd__dfrtp_1
*I *1773:CLK I *D sky130_fd_sc_hd__dfrtp_1
*I *1772:CLK I *D sky130_fd_sc_hd__dfrtp_1
*I *1774:CLK I *D sky130_fd_sc_hd__dfrtp_1
*I *1780:CLK I *D sky130_fd_sc_hd__dfrtp_1
*I *1777:CLK I *D sky130_fd_sc_hd__dfrtp_1
*I *1767:CLK I *D sky130_fd_sc_hd__dfrtp_1
*I *1785:CLK I *D sky130_fd_sc_hd__dfrtp_1
*I *1781:CLK I *D sky130_fd_sc_hd__dfrtp_1
*I *1782:CLK I *D sky130_fd_sc_hd__dfrtp_1
*I *1779:CLK I *D sky130_fd_sc_hd__dfrtp_1
*I *1111:X O *D sky130_fd_sc_hd__clkbuf_16
*CAP
1 *1778:CLK 0.000151114
2 *1776:CLK 0
3 *1775:CLK 0
4 *1773:CLK 1.79896e-05
5 *1772:CLK 0
6 *1774:CLK 0
7 *1780:CLK 0
8 *1777:CLK 0.00051316
9 *1767:CLK 0.000207501
10 *1785:CLK 2.30195e-05
11 *1781:CLK 0.000160686
12 *1782:CLK 2.9945e-05
13 *1779:CLK 0.00011381
14 *1111:X 5.64672e-05
15 *72:129 0.000271905
16 *72:74 0.00111634
17 *72:61 0.000552721
18 *72:50 0.000392694
19 *72:39 0.000210209
20 *72:28 0.000360685
21 *72:22 0.000637479
22 *72:18 0.000542473
23 *72:14 0.000166528
24 *72:12 0.000207672
25 *72:10 0.000159844
26 *72:8 0.000244358
27 *1767:CLK *1767:D 0
28 *1767:CLK *722:35 0
29 *1773:CLK *1735:B 2.89114e-05
30 *1773:CLK *1773:D 1.92905e-05
31 *1777:CLK *1703:A0 0
32 *1777:CLK *1703:S 0
33 *1777:CLK *1744:A 3.31648e-05
34 *1777:CLK *1744:B 2.55587e-05
35 *1777:CLK *1767:D 0
36 *1777:CLK *1776:D 0
37 *1777:CLK *722:29 0
38 *1777:CLK *722:35 0
39 *1777:CLK *761:8 5.33433e-05
40 *1778:CLK *1749:B 5.52302e-05
41 *1778:CLK *1778:D 5.52302e-05
42 *1778:CLK *693:14 0.000137996
43 *1778:CLK *701:16 9.25014e-06
44 *1778:CLK *701:18 0.00020112
45 *1778:CLK *701:20 0.000191877
46 *1779:CLK *1725:D 0
47 *1781:CLK *1704:A0 0
48 *1781:CLK *1725:D 0
49 *1781:CLK *126:6 0
50 *1782:CLK *1725:D 2.59355e-05
51 *1785:CLK *1704:A0 2.89114e-05
52 *72:8 *1734:A 0.000106467
53 *72:8 *1736:B 0.000151071
54 *72:10 *1775:D 0
55 *72:10 *701:22 0.000146941
56 *72:12 *1732:A 0
57 *72:12 *1734:B 0
58 *72:12 *701:22 0.000193599
59 *72:14 *1732:A 0
60 *72:14 *701:22 9.25014e-06
61 *72:14 *701:24 0.000191877
62 *72:18 *1732:A 0
63 *72:18 *1732:B 0.000201127
64 *72:18 *1772:D 6.58289e-05
65 *72:18 *701:24 9.25014e-06
66 *72:22 *1738:A2 0
67 *72:22 *1774:D 6.86693e-05
68 *72:28 *1724:A 0
69 *72:39 *1724:A 0
70 *72:50 *1724:C 0
71 *72:74 *1704:A0 0
72 *72:74 *1767:D 0
73 *72:129 *701:20 0.000153769
74 *72:129 *701:22 9.54385e-05
75 *1767:RESET_B *1767:CLK 0.000158747
76 *1768:RESET_B *72:74 1.97381e-05
77 *1780:RESET_B *72:22 2.0714e-05
78 *1781:RESET_B *72:50 0.000122047
79 *1785:RESET_B *72:50 0
80 *1785:RESET_B *72:61 0
81 *1785:RESET_B *72:74 0
82 *50:125 *1778:CLK 0
83 *50:125 *72:129 0
84 *50:127 *72:10 0
85 *50:127 *72:12 0
86 *50:127 *72:129 0
87 *50:146 *72:22 0.000288448
88 *50:154 *72:22 0.000171023
89 *50:154 *72:28 0.000119016
90 *50:167 *1779:CLK 0.000126251
91 *50:167 *72:28 9.33978e-07
92 *50:327 *72:28 4.73656e-05
93 *50:327 *72:39 0.000205979
94 *50:327 *72:50 3.34366e-05
*RES
1 *1111:X *72:8 17.3891 
2 *72:8 *72:10 2.69803 
3 *72:10 *72:12 3.53962 
4 *72:12 *72:14 3.53962 
5 *72:14 *72:18 8.03962 
6 *72:18 *72:22 16.708 
7 *72:22 *72:28 8.7822 
8 *72:28 *1779:CLK 17.9584 
9 *72:28 *72:39 3.53962 
10 *72:39 *1782:CLK 14.5426 
11 *72:39 *72:50 3.53962 
12 *72:50 *1781:CLK 17.9584 
13 *72:50 *72:61 3.53962 
14 *72:61 *1785:CLK 14.5426 
15 *72:61 *72:74 14.7723 
16 *72:74 *1767:CLK 15.7357 
17 *72:74 *1777:CLK 23.0377 
18 *72:22 *1780:CLK 9.3 
19 *72:18 *1774:CLK 9.3 
20 *72:14 *1772:CLK 13.8 
21 *72:12 *1773:CLK 14.5426 
22 *72:10 *1775:CLK 13.8 
23 *72:8 *72:129 4.38121 
24 *72:129 *1776:CLK 13.8 
25 *72:129 *1778:CLK 21.4486 
*END

*D_NET *73 0.00679903
*CONN
*I *1771:CLK I *D sky130_fd_sc_hd__dfrtp_1
*I *1791:CLK I *D sky130_fd_sc_hd__dfrtp_1
*I *1792:CLK I *D sky130_fd_sc_hd__dfrtp_1
*I *1769:CLK I *D sky130_fd_sc_hd__dfrtp_1
*I *1788:CLK I *D sky130_fd_sc_hd__dfrtp_1
*I *1789:CLK I *D sky130_fd_sc_hd__dfrtp_1
*I *1790:CLK I *D sky130_fd_sc_hd__dfrtp_1
*I *1768:CLK I *D sky130_fd_sc_hd__dfrtp_1
*I *1112:X O *D sky130_fd_sc_hd__clkbuf_16
*CAP
1 *1771:CLK 6.63318e-05
2 *1791:CLK 0
3 *1792:CLK 0
4 *1769:CLK 6.13391e-05
5 *1788:CLK 0.000115136
6 *1789:CLK 4.96455e-05
7 *1790:CLK 0
8 *1768:CLK 0.000147389
9 *1112:X 4.3936e-05
10 *73:46 0.00029004
11 *73:37 0.000318653
12 *73:26 0.000796172
13 *73:20 0.000587489
14 *73:16 0.000158829
15 *73:12 0.000184646
16 *73:6 0.000206846
17 *1768:CLK *1710:A 2.07937e-05
18 *1768:CLK *1718:B1 0.000102197
19 *1768:CLK *1768:D 0
20 *1768:CLK *722:35 0
21 *1769:CLK *1706:A 9.80489e-05
22 *1769:CLK *1731:A2 0
23 *1769:CLK *1769:D 1.74352e-05
24 *1769:CLK *698:50 1.40415e-05
25 *1771:CLK *1729:A3 4.1331e-06
26 *1771:CLK *1792:D 0.000252637
27 *1771:CLK *698:50 0.000128039
28 *1788:CLK *1708:C 0.000131297
29 *1788:CLK *1709:B 0
30 *1788:CLK *1713:A2 0
31 *1788:CLK *733:16 1.40942e-05
32 *1788:CLK *733:29 1.01487e-05
33 *1789:CLK *1713:B1 3.81416e-06
34 *1789:CLK *1755:B1 7.77652e-05
35 *1789:CLK *734:12 9.92409e-05
36 *73:6 *1759:C1 4.70078e-05
37 *73:12 *1757:A1 8.13599e-05
38 *73:12 *1759:C1 4.48863e-05
39 *73:12 *698:50 8.48609e-05
40 *73:16 *1757:A1 5.80706e-06
41 *73:16 *1757:A2 4.038e-06
42 *73:16 *697:10 1.02504e-05
43 *73:16 *697:29 0.000177941
44 *73:16 *698:50 0.000109566
45 *73:20 *697:10 7.57965e-05
46 *73:20 *698:50 5.59013e-05
47 *73:26 *1706:A 0.000208648
48 *73:26 *1717:A2 0.000227532
49 *73:26 *1717:B1 3.18676e-05
50 *73:26 *1718:B1 0.000496714
51 *73:26 *1750:B 0.00022711
52 *73:26 *1752:A2 0
53 *73:26 *1752:B1 2.861e-05
54 *73:26 *1753:B1 1.40306e-05
55 *73:26 *1757:B1 0
56 *73:26 *1768:D 0
57 *73:26 *698:50 5.13075e-05
58 *73:26 *713:8 0.000181374
59 *73:26 *720:10 0.0001399
60 *73:26 *722:35 0
61 *73:26 *735:12 2.44318e-05
62 *73:37 *1709:B 0
63 *73:37 *1710:C_N 2.49484e-05
64 *73:37 *1717:A2 0
65 *73:37 *1718:B1 0
66 *73:37 *1752:B1 4.58096e-05
67 *73:37 *690:18 0.00013059
68 *73:37 *733:48 6.07232e-05
69 *73:46 *1709:B 0
70 *73:46 *690:18 2.48938e-05
71 *73:46 *733:29 6.70713e-05
72 *73:46 *733:31 2.16719e-05
73 *1789:RESET_B *73:6 4.88515e-05
74 *1789:RESET_B *73:12 4.53889e-05
75 *50:117 *73:20 0
*RES
1 *1112:X *73:6 11.1812 
2 *73:6 *73:12 9.07923 
3 *73:12 *73:16 4.2822 
4 *73:16 *73:20 7.19803 
5 *73:20 *73:26 19.7278 
6 *73:26 *1768:CLK 14.0277 
7 *73:26 *73:37 10.9852 
8 *73:37 *1790:CLK 13.8 
9 *73:37 *73:46 3.53962 
10 *73:46 *1789:CLK 16.2505 
11 *73:46 *1788:CLK 17.3396 
12 *73:20 *1769:CLK 11.7753 
13 *73:16 *1792:CLK 13.8 
14 *73:12 *1791:CLK 13.8 
15 *73:6 *1771:CLK 22.6812 
*END

*D_NET *74 0.00517308
*CONN
*I *1095:CLK I *D sky130_fd_sc_hd__dfstp_2
*I *1098:CLK I *D sky130_fd_sc_hd__dfrtp_1
*I *1097:CLK I *D sky130_fd_sc_hd__dfrtp_1
*I *1096:CLK I *D sky130_fd_sc_hd__dfrtp_1
*I *1481:CLK I *D sky130_fd_sc_hd__dfrtp_1
*I *1761:CLK I *D sky130_fd_sc_hd__dfrtp_1
*I *1113:X O *D sky130_fd_sc_hd__clkbuf_16
*CAP
1 *1095:CLK 0
2 *1098:CLK 0.000234035
3 *1097:CLK 0
4 *1096:CLK 0.000370226
5 *1481:CLK 0.000121416
6 *1761:CLK 0.000234773
7 *1113:X 0.000108812
8 *74:20 0.000406281
9 *74:18 0.000468552
10 *74:16 0.00039729
11 *74:14 0.00068341
12 *74:12 0.00020913
13 *1096:CLK *1697:S 0
14 *1096:CLK *1700:A0 5.52302e-05
15 *1096:CLK *722:105 0.000265726
16 *1098:CLK *1085:A_N 0.000201127
17 *1098:CLK *1696:A 2.27416e-05
18 *1098:CLK *1696:B 6.39355e-05
19 *1098:CLK *102:46 3.17148e-05
20 *1481:CLK *1697:S 0
21 *1481:CLK *674:12 0
22 *1761:CLK *1761:D 5.39629e-06
23 *1761:CLK *755:8 0.000216852
24 *74:12 *102:46 0
25 *74:14 *1082:A_N 4.27935e-05
26 *74:14 *1082:B 3.08066e-05
27 *74:14 *765:36 0
28 *74:16 *1082:A_N 5.33005e-05
29 *74:16 *1082:B 4.43256e-05
30 *74:16 *1096:D 0
31 *74:16 *1495:D 0
32 *74:16 *1697:S 5.39166e-06
33 *74:16 *103:8 3.18676e-05
34 *74:18 *1697:S 1.57931e-05
35 *74:18 *1700:A0 0
36 *74:20 *1697:S 9.00795e-06
37 *74:20 *755:8 2.89114e-05
38 *1083:B1 *74:12 1.92905e-05
39 *1083:B1 *74:14 7.77652e-05
40 *1086:A *74:20 1.21258e-05
41 *1097:D *1096:CLK 2.02508e-05
42 *1097:D *74:16 6.87574e-05
43 *1097:D *74:18 3.18676e-05
44 *1099:RESET_B *1481:CLK 0
45 *1099:RESET_B *1761:CLK 0
46 *1481:RESET_B *74:16 0
47 *1761:RESET_B *1096:CLK 0.000126439
48 *1761:RESET_B *1761:CLK 5.25816e-05
49 *1761:RESET_B *74:20 4.58976e-05
50 *50:101 *74:12 0
51 *50:467 *1096:CLK 9.25014e-06
52 *50:531 *74:12 1.40415e-05
53 *50:531 *74:14 0
54 *50:531 *74:16 0
55 *67:12 *1096:CLK 5.9563e-05
56 *67:12 *1098:CLK 5.39629e-06
57 *67:16 *1761:CLK 0.00027101
*RES
1 *1113:X *74:12 21.3198 
2 *74:12 *74:14 3.58913 
3 *74:14 *74:16 12.1288 
4 *74:16 *74:18 1.8812 
5 *74:18 *74:20 1.8812 
6 *74:20 *1761:CLK 19.7208 
7 *74:20 *1481:CLK 21.4188 
8 *74:18 *1096:CLK 31.2951 
9 *74:16 *1097:CLK 9.3 
10 *74:14 *1098:CLK 25.9486 
11 *74:12 *1095:CLK 9.3 
*END

*D_NET *75 0.0044762
*CONN
*I *1500:CLK I *D sky130_fd_sc_hd__dfrtp_1
*I *1487:CLK I *D sky130_fd_sc_hd__dfrtp_1
*I *1486:CLK I *D sky130_fd_sc_hd__dfrtp_4
*I *1480:CLK I *D sky130_fd_sc_hd__dfstp_2
*I *1505:CLK I *D sky130_fd_sc_hd__dfrtp_1
*I *1114:X O *D sky130_fd_sc_hd__clkbuf_16
*CAP
1 *1500:CLK 0
2 *1487:CLK 0.000165792
3 *1486:CLK 0
4 *1480:CLK 0.000106565
5 *1505:CLK 0.000408072
6 *1114:X 0.000367462
7 *75:40 0.000268491
8 *75:34 0.000391171
9 *75:8 0.000533164
10 *75:6 0.000674462
11 *1480:CLK *454:26 0
12 *1487:CLK *1468:A 9.90431e-05
13 *1487:CLK *1468:B 7.38652e-05
14 *1487:CLK *1469:C 2.80968e-06
15 *1487:CLK *442:12 1.39726e-05
16 *1487:CLK *443:14 0
17 *1487:CLK *443:20 0
18 *1487:CLK *444:20 9.79654e-05
19 *1487:CLK *465:6 2.89016e-05
20 *1487:CLK *465:19 3.69581e-05
21 *1487:CLK *471:18 3.18676e-05
22 *1505:CLK *1505:D 0.000265726
23 *1505:CLK *445:36 1.85258e-05
24 *75:6 *1459:B 0
25 *75:6 *1469:A 0
26 *75:6 *1480:D 3.91226e-05
27 *75:6 *466:8 7.03458e-05
28 *75:34 *1500:D 3.88799e-05
29 *75:34 *1505:D 0
30 *75:34 *103:38 1.17968e-05
31 *75:34 *444:20 8.08488e-05
32 *75:34 *445:36 2.9729e-05
33 *75:40 *1468:B 1.97381e-05
34 *75:40 *102:31 0.000155476
35 *75:40 *103:38 1.31516e-05
36 *75:40 *444:20 5.62995e-05
37 *75:40 *465:6 5.33433e-05
38 *1505:RESET_B *1505:CLK 9.66688e-05
39 *1505:RESET_B *75:6 0.000151643
40 *1505:RESET_B *75:8 1.39726e-05
41 *1542:RESET_B *1505:CLK 0
42 *69:115 *1487:CLK 6.03651e-05
*RES
1 *1114:X *75:6 20.2902 
2 *75:6 *75:8 0.742578 
3 *75:8 *1505:CLK 22.4436 
4 *75:8 *1480:CLK 12.3198 
5 *75:6 *75:34 11.3565 
6 *75:34 *75:40 8.93072 
7 *75:40 *1486:CLK 9.3 
8 *75:40 *1487:CLK 25.0327 
9 *75:34 *1500:CLK 13.8 
*END

*D_NET *76 0.00462947
*CONN
*I *1482:CLK I *D sky130_fd_sc_hd__dfrtp_1
*I *1501:CLK I *D sky130_fd_sc_hd__dfrtp_1
*I *1502:CLK I *D sky130_fd_sc_hd__dfrtp_1
*I *1483:CLK I *D sky130_fd_sc_hd__dfrtp_1
*I *1488:CLK I *D sky130_fd_sc_hd__dfrtp_1
*I *1507:CLK I *D sky130_fd_sc_hd__dfrtp_1
*I *1115:X O *D sky130_fd_sc_hd__clkbuf_16
*CAP
1 *1482:CLK 0.000144772
2 *1501:CLK 0
3 *1502:CLK 9.37534e-05
4 *1483:CLK 0
5 *1488:CLK 3.42613e-05
6 *1507:CLK 0.000272311
7 *1115:X 0.000325477
8 *76:58 0.000206561
9 *76:16 0.000391852
10 *76:12 0.000128787
11 *76:10 0.000208328
12 *76:8 0.000458334
13 *1482:CLK *445:22 0.000157437
14 *1482:CLK *447:12 4.58194e-05
15 *1482:CLK *454:39 0.000404415
16 *1488:CLK *448:16 0
17 *1502:CLK *1462:A 1.04232e-05
18 *1502:CLK *1462:B 5.33005e-05
19 *1502:CLK *1477:A_N 3.55552e-05
20 *1507:CLK *1463:A 0
21 *1507:CLK *1463:B 0
22 *1507:CLK *1483:D 0
23 *1507:CLK *1492:D 0.000134719
24 *1507:CLK *1497:D 0
25 *1507:CLK *1537:D 2.00751e-05
26 *1507:CLK *445:36 0
27 *1507:CLK *448:16 0
28 *76:8 *1466:A 2.42516e-05
29 *76:8 *1466:B 0.000429085
30 *76:8 *456:8 3.69047e-06
31 *76:10 *445:26 7.71366e-05
32 *76:10 *454:26 5.58941e-05
33 *76:10 *454:39 0.000144519
34 *76:12 *445:26 5.11571e-05
35 *76:12 *445:36 0
36 *76:12 *454:26 0.000157191
37 *76:16 *445:36 0
38 *76:16 *454:26 0.000205271
39 *76:58 *445:22 7.21654e-05
40 *76:58 *445:26 2.78729e-05
41 *76:58 *454:39 0.000255059
*RES
1 *1115:X *76:8 25.3595 
2 *76:8 *76:10 3.53962 
3 *76:10 *76:12 2.69803 
4 *76:12 *76:16 8.03962 
5 *76:16 *1507:CLK 26.1466 
6 *76:16 *1488:CLK 10.0426 
7 *76:12 *1483:CLK 13.8 
8 *76:10 *1502:CLK 16.8693 
9 *76:8 *76:58 4.38121 
10 *76:58 *1501:CLK 13.8 
11 *76:58 *1482:CLK 22.0179 
*END

*D_NET *77 0.00667749
*CONN
*I *1503:CLK I *D sky130_fd_sc_hd__dfrtp_1
*I *1508:CLK I *D sky130_fd_sc_hd__dfrtp_1
*I *1484:CLK I *D sky130_fd_sc_hd__dfrtp_1
*I *1770:CLK I *D sky130_fd_sc_hd__dfstp_2
*I *1485:CLK I *D sky130_fd_sc_hd__dfrtp_1
*I *1489:CLK I *D sky130_fd_sc_hd__dfrtp_1
*I *1504:CLK I *D sky130_fd_sc_hd__dfrtp_1
*I *1509:CLK I *D sky130_fd_sc_hd__dfrtp_1
*I *1506:CLK I *D sky130_fd_sc_hd__dfrtp_1
*I *1116:X O *D sky130_fd_sc_hd__clkbuf_16
*CAP
1 *1503:CLK 0.000226448
2 *1508:CLK 0
3 *1484:CLK 4.58682e-05
4 *1770:CLK 0.000550008
5 *1485:CLK 6.42651e-05
6 *1489:CLK 3.33806e-05
7 *1504:CLK 0
8 *1509:CLK 0
9 *1506:CLK 0.000169107
10 *1116:X 0.000155575
11 *77:89 0.000320019
12 *77:73 0.000595876
13 *77:71 0.000194533
14 *77:60 0.000297619
15 *77:49 0.000300509
16 *77:40 0.000239051
17 *77:22 0.000469585
18 *77:8 0.000560368
19 *1484:CLK *1484:D 9.16173e-05
20 *1484:CLK *1498:D 9.76689e-05
21 *1485:CLK *1484:D 0
22 *1485:CLK *450:16 5.06983e-05
23 *1489:CLK *1479:A 5.41609e-05
24 *1489:CLK *1508:D 7.77751e-05
25 *1503:CLK *1465:A 0
26 *1503:CLK *1476:A 0
27 *1503:CLK *1508:D 4.1331e-06
28 *1503:CLK *474:10 0
29 *1506:CLK *1521:A 0
30 *1506:CLK *447:12 7.40153e-05
31 *1506:CLK *510:12 0.000403707
32 *1506:CLK *674:12 0
33 *1770:CLK *1484:D 9.92409e-05
34 *1770:CLK *1493:CLK 0
35 *1770:CLK *1493:D 0
36 *1770:CLK *1498:D 0.0001863
37 *1770:CLK *1529:A 0
38 *1770:CLK *1770:D 0.000149228
39 *1770:CLK *450:16 0
40 *77:8 *1474:B 0.000226066
41 *77:8 *445:20 0.000332901
42 *77:22 *1464:A1 6.53244e-05
43 *77:22 *1464:B1 8.27184e-06
44 *77:22 *1475:B 0
45 *77:22 *1499:D 0
46 *77:22 *1509:D 7.32272e-05
47 *77:22 *445:20 2.61337e-05
48 *77:22 *445:22 5.66455e-05
49 *77:22 *454:39 4.7054e-05
50 *77:40 *1475:B 0
51 *77:40 *1499:D 0
52 *77:49 *1475:B 0
53 *77:49 *1485:D 0
54 *77:49 *1489:D 0
55 *77:49 *450:18 0
56 *77:49 *469:14 0
57 *77:60 *1465:A 0
58 *77:60 *1485:D 0
59 *77:60 *1508:D 5.67246e-05
60 *77:60 *450:16 0
61 *77:60 *450:18 0
62 *77:71 *1465:A 0
63 *77:71 *1484:D 0
64 *77:71 *1508:D 7.67996e-05
65 *77:89 *1484:D 0
66 *77:89 *1508:D 6.58382e-05
67 *77:89 *474:10 0
68 *1116:A *77:22 4.51691e-05
69 *1484:RESET_B *1503:CLK 0
70 *1503:RESET_B *1503:CLK 0
71 *1508:RESET_B *1503:CLK 2.09915e-05
72 *50:19 *1770:CLK 3.96556e-05
73 *51:24 *1770:CLK 2.59355e-05
*RES
1 *1116:X *77:8 21.9436 
2 *77:8 *77:22 14.302 
3 *77:22 *1506:CLK 25.206 
4 *77:22 *1509:CLK 9.3 
5 *77:8 *77:40 2.69803 
6 *77:40 *1504:CLK 13.8 
7 *77:40 *77:49 3.53962 
8 *77:49 *1489:CLK 15.6812 
9 *77:49 *77:60 3.53962 
10 *77:60 *1485:CLK 15.6812 
11 *77:60 *77:71 3.53962 
12 *77:71 *77:73 4.5 
13 *77:73 *1770:CLK 25.9833 
14 *77:73 *1484:CLK 11.7505 
15 *77:71 *77:89 3.11883 
16 *77:89 *1508:CLK 13.8 
17 *77:89 *1503:CLK 19.7901 
*END

*D_NET *78 0.010384
*CONN
*I *1436:CLK I *D sky130_fd_sc_hd__dfxtp_1
*I *1340:CLK I *D sky130_fd_sc_hd__dfxtp_1
*I *1420:CLK I *D sky130_fd_sc_hd__dfxtp_1
*I *1343:CLK I *D sky130_fd_sc_hd__dfxtp_1
*I *1439:CLK I *D sky130_fd_sc_hd__dfxtp_1
*I *1342:CLK I *D sky130_fd_sc_hd__dfxtp_1
*I *1422:CLK I *D sky130_fd_sc_hd__dfxtp_1
*I *1438:CLK I *D sky130_fd_sc_hd__dfxtp_1
*I *1367:CLK I *D sky130_fd_sc_hd__dfxtp_1
*I *1423:CLK I *D sky130_fd_sc_hd__dfxtp_1
*I *1364:CLK I *D sky130_fd_sc_hd__dfxtp_1
*I *1117:X O *D sky130_fd_sc_hd__clkbuf_8
*CAP
1 *1436:CLK 5.2686e-05
2 *1340:CLK 8.15197e-05
3 *1420:CLK 2.92519e-05
4 *1343:CLK 0
5 *1439:CLK 0
6 *1342:CLK 0.000427507
7 *1422:CLK 0
8 *1438:CLK 0.000298875
9 *1367:CLK 0
10 *1423:CLK 0.000203143
11 *1364:CLK 0.000158727
12 *1117:X 0.00036179
13 *78:83 0.000522924
14 *78:58 0.000416355
15 *78:50 0.000271209
16 *78:37 0.000541549
17 *78:35 0.000350168
18 *78:33 0.000316045
19 *78:31 0.000409244
20 *78:29 0.000627193
21 *78:23 0.000603683
22 *78:10 0.000659863
23 *1340:CLK *1420:D 0
24 *1342:CLK *1290:A1 4.25311e-05
25 *1342:CLK *1306:A1 0
26 *1342:CLK *1309:S 0
27 *1342:CLK *1422:D 0
28 *1342:CLK *1439:D 0.000404121
29 *1342:CLK *393:8 1.92789e-05
30 *1364:CLK *1156:A2 0.000112604
31 *1364:CLK *1192:A0 0
32 *1364:CLK *293:59 0
33 *1423:CLK *1195:A1 0
34 *1423:CLK *1291:S 0
35 *1423:CLK *1423:D 0.000134719
36 *1436:CLK *1192:A0 1.26981e-05
37 *1436:CLK *108:70 5.01464e-05
38 *1438:CLK *1165:A2 0
39 *1438:CLK *1195:A0 4.46231e-06
40 *1438:CLK *1290:A0 0
41 *1438:CLK *1291:A0 0.000186662
42 *1438:CLK *1367:D 0.000535566
43 *1438:CLK *111:76 4.62969e-05
44 *1438:CLK *111:80 3.44348e-05
45 *1438:CLK *385:8 5.52238e-05
46 *78:10 *1288:A0 0.000220633
47 *78:10 *1288:S 5.52302e-05
48 *78:10 *1306:A0 2.09915e-05
49 *78:10 *1306:A1 0
50 *78:10 *1436:D 5.39629e-06
51 *78:10 *108:74 2.39779e-05
52 *78:10 *293:42 0.000182799
53 *78:10 *293:59 0.000412515
54 *78:23 *1288:A0 3.17163e-05
55 *78:23 *1436:D 0
56 *78:23 *293:42 0.000344377
57 *78:29 *1192:A0 2.72887e-05
58 *78:29 *1362:CLK 0
59 *78:29 *108:70 2.79421e-05
60 *78:29 *309:47 0
61 *78:31 *309:47 0
62 *78:33 *1195:S 0
63 *78:33 *1343:D 2.31791e-05
64 *78:33 *309:47 0
65 *78:35 *1195:S 0
66 *78:35 *1343:D 0.000174257
67 *78:37 *1195:S 0
68 *78:37 *1291:S 0
69 *78:37 *1343:D 0.000358764
70 *78:50 *1195:A0 0.000227526
71 *78:50 *1290:A0 3.69047e-06
72 *78:50 *1422:D 0
73 *78:58 *1171:A2 0
74 *78:58 *1291:A0 4.59075e-05
75 *78:58 *1291:S 0.000177941
76 *78:58 *1422:D 9.25014e-06
77 *78:58 *111:80 4.01768e-05
78 *78:58 *417:10 0
79 *78:83 *1343:D 0
*RES
1 *1117:X *78:10 28.7506 
2 *78:10 *1364:CLK 18.5277 
3 *78:10 *78:23 10.5644 
4 *78:23 *78:29 15.7624 
5 *78:29 *78:31 3.53962 
6 *78:31 *78:33 6.90598 
7 *78:33 *78:35 3.11883 
8 *78:35 *78:37 7.32677 
9 *78:37 *1423:CLK 20.2852 
10 *78:37 *78:50 9.22775 
11 *78:50 *78:58 13.4307 
12 *78:58 *1367:CLK 9.3 
13 *78:58 *1438:CLK 21.4783 
14 *78:50 *1422:CLK 9.3 
15 *78:35 *78:83 6.95051 
16 *78:83 *1342:CLK 22.0228 
17 *78:83 *1439:CLK 9.3 
18 *78:33 *1343:CLK 13.8 
19 *78:31 *1420:CLK 14.5426 
20 *78:29 *1340:CLK 16.2505 
21 *78:23 *1436:CLK 11.3792 
*END

*D_NET *79 0.0167922
*CONN
*I *1393:CLK I *D sky130_fd_sc_hd__dfxtp_1
*I *1409:CLK I *D sky130_fd_sc_hd__dfxtp_1
*I *1691:CLK I *D sky130_fd_sc_hd__dfrtp_1
*I *1690:CLK I *D sky130_fd_sc_hd__dfrtp_1
*I *1689:CLK I *D sky130_fd_sc_hd__dfrtp_1
*I *1328:CLK I *D sky130_fd_sc_hd__dfxtp_1
*I *1392:CLK I *D sky130_fd_sc_hd__dfxtp_1
*I *1408:CLK I *D sky130_fd_sc_hd__dfxtp_1
*I *1394:CLK I *D sky130_fd_sc_hd__dfxtp_1
*I *1413:CLK I *D sky130_fd_sc_hd__dfxtp_1
*I *1368:CLK I *D sky130_fd_sc_hd__dfxtp_1
*I *1333:CLK I *D sky130_fd_sc_hd__dfxtp_1
*I *1397:CLK I *D sky130_fd_sc_hd__dfxtp_1
*I *1373:CLK I *D sky130_fd_sc_hd__dfxtp_1
*I *1410:CLK I *D sky130_fd_sc_hd__dfxtp_1
*I *1370:CLK I *D sky130_fd_sc_hd__dfxtp_1
*I *1329:CLK I *D sky130_fd_sc_hd__dfxtp_1
*I *1118:X O *D sky130_fd_sc_hd__clkbuf_8
*CAP
1 *1393:CLK 0
2 *1409:CLK 0
3 *1691:CLK 1.30791e-05
4 *1690:CLK 0.000236948
5 *1689:CLK 0.000329941
6 *1328:CLK 0.000114812
7 *1392:CLK 9.60838e-05
8 *1408:CLK 2.23854e-05
9 *1394:CLK 0
10 *1413:CLK 7.85805e-05
11 *1368:CLK 0.000582276
12 *1333:CLK 9.40633e-05
13 *1397:CLK 0
14 *1373:CLK 2.29842e-05
15 *1410:CLK 4.92236e-05
16 *1370:CLK 0.000163274
17 *1329:CLK 8.16486e-05
18 *1118:X 0.000110913
19 *79:178 0.000566889
20 *79:176 0.000278383
21 *79:165 0.000458832
22 *79:150 0.000457455
23 *79:137 0.000423065
24 *79:95 0.000700477
25 *79:88 0.000175481
26 *79:84 0.000399549
27 *79:73 0.000418959
28 *79:51 0.000331666
29 *79:49 0.000816057
30 *79:43 0.000607275
31 *79:37 0.000521215
32 *79:29 0.000455266
33 *79:14 0.000357833
34 *79:10 0.000198286
35 *1328:CLK *1182:S 1.50867e-05
36 *1328:CLK *1228:A0 0
37 *1328:CLK *1328:D 0.000144186
38 *1329:CLK *1276:A0 4.00276e-06
39 *1329:CLK *104:157 9.56872e-05
40 *1329:CLK *108:194 1.92789e-05
41 *1333:CLK *1397:D 0.000116324
42 *1333:CLK *1413:D 0
43 *1368:CLK *1182:A1 2.89016e-05
44 *1368:CLK *1333:D 0
45 *1368:CLK *1368:D 0
46 *1368:CLK *1397:D 1.64343e-05
47 *1368:CLK *327:8 0
48 *1368:CLK *367:10 0
49 *1370:CLK *1370:D 0
50 *1373:CLK *1373:D 5.52238e-05
51 *1392:CLK *1177:S 8.17274e-05
52 *1392:CLK *1182:S 0.000318101
53 *1392:CLK *1392:D 0.000272676
54 *1392:CLK *104:163 3.8469e-05
55 *1408:CLK *1230:A1 0
56 *1410:CLK *1410:D 5.71472e-05
57 *1413:CLK *1413:D 0.000157906
58 *1689:CLK *1135:S0 0
59 *1689:CLK *1177:A1 1.02504e-05
60 *1689:CLK *1177:S 2.37575e-05
61 *1689:CLK *1328:D 0
62 *1689:CLK *1689:D 0
63 *1689:CLK *322:8 0
64 *1690:CLK *1691:D 0
65 *79:10 *1145:S0 5.88068e-05
66 *79:10 *104:157 5.38886e-05
67 *79:14 *104:157 0.000122717
68 *79:29 *1369:D 0
69 *79:29 *1409:D 5.95099e-05
70 *79:29 *105:221 0
71 *79:29 *106:36 0.000393204
72 *79:29 *290:59 7.71767e-05
73 *79:37 *1145:A0 9.95308e-05
74 *79:37 *1145:A1 0.000108118
75 *79:37 *1229:S 1.21258e-05
76 *79:37 *1259:A0 0.000124469
77 *79:37 *106:36 0.000117621
78 *79:37 *106:57 0.000350763
79 *79:37 *277:10 4.10338e-05
80 *79:37 *290:42 0.000131558
81 *79:37 *290:59 9.31893e-05
82 *79:43 *1277:A1 2.88018e-06
83 *79:43 *1394:D 4.11223e-05
84 *79:43 *106:57 3.73591e-06
85 *79:43 *306:68 2.47753e-05
86 *79:49 *1262:S 0
87 *79:49 *1277:A0 3.81416e-06
88 *79:49 *1277:A1 0.000157311
89 *79:49 *1280:S 0
90 *79:49 *1410:D 0.000247216
91 *79:51 *1370:D 0
92 *79:73 *1280:A1 0
93 *79:73 *1370:D 0
94 *79:73 *1373:D 1.76135e-05
95 *79:73 *1413:D 0.000128868
96 *79:84 *1373:D 0.00019744
97 *79:84 *1413:D 0.000629173
98 *79:88 *1233:S 0
99 *79:88 *1413:D 0
100 *79:95 *1233:S 0
101 *79:137 *1257:S 2.47833e-05
102 *79:137 *1259:A0 0.000191648
103 *79:137 *1275:S 0
104 *79:137 *109:44 0.000188586
105 *79:137 *277:10 0.000175519
106 *79:150 *1135:A2 0.000297559
107 *79:150 *1257:S 0.000113158
108 *79:150 *1392:D 0
109 *79:150 *1408:D 8.95186e-05
110 *79:150 *104:157 0
111 *79:150 *109:44 0.000487467
112 *79:150 *290:74 5.08481e-05
113 *79:150 *362:12 5.7616e-05
114 *79:165 *1135:A2 0.000142082
115 *79:165 *1328:D 0
116 *79:176 *1177:A0 1.57931e-05
117 *79:176 *1177:S 0
118 *79:176 *1328:D 0.00034756
119 *79:176 *354:6 0
120 *1118:A *79:10 5.33005e-05
121 *1119:A *79:10 0.000172309
122 *68:179 *1329:CLK 0.000176226
123 *68:179 *79:10 0.000153047
124 *68:179 *79:14 0.000139417
*RES
1 *1118:X *79:10 19.5179 
2 *79:10 *79:14 4.70299 
3 *79:14 *1329:CLK 17.6614 
4 *79:14 *79:29 12.0743 
5 *79:29 *79:37 18.708 
6 *79:37 *79:43 7.96536 
7 *79:43 *79:49 18.9308 
8 *79:49 *79:51 3.11883 
9 *79:51 *1370:CLK 18.0822 
10 *79:51 *1410:CLK 15.6812 
11 *79:49 *79:73 6.90598 
12 *79:73 *1373:CLK 14.5426 
13 *79:73 *79:84 10.6931 
14 *79:84 *79:88 8.08913 
15 *79:88 *1397:CLK 9.3 
16 *79:88 *79:95 0.742578 
17 *79:95 *1333:CLK 21.8396 
18 *79:95 *1368:CLK 24.3248 
19 *79:84 *1413:CLK 16.9188 
20 *79:43 *1394:CLK 9.3 
21 *79:37 *79:137 10.6386 
22 *79:137 *1408:CLK 9.89406 
23 *79:137 *79:150 17.8417 
24 *79:150 *1392:CLK 19.6911 
25 *79:150 *79:165 7.19803 
26 *79:165 *1328:CLK 12.8891 
27 *79:165 *79:176 8.73767 
28 *79:176 *79:178 4.5 
29 *79:178 *1689:CLK 21.6713 
30 *79:178 *1690:CLK 19.9386 
31 *79:176 *1691:CLK 10.0426 
32 *79:29 *1409:CLK 9.3 
33 *79:10 *1393:CLK 13.8 
*END

*D_NET *80 0.0117863
*CONN
*I *1650:CLK I *D sky130_fd_sc_hd__dfrtp_1
*I *1672:CLK I *D sky130_fd_sc_hd__dfrtp_1
*I *1669:CLK I *D sky130_fd_sc_hd__dfrtp_1
*I *1660:CLK I *D sky130_fd_sc_hd__dfrtp_1
*I *1664:CLK I *D sky130_fd_sc_hd__dfrtp_1
*I *1647:CLK I *D sky130_fd_sc_hd__dfrtp_1
*I *1661:CLK I *D sky130_fd_sc_hd__dfrtp_1
*I *1668:CLK I *D sky130_fd_sc_hd__dfrtp_1
*I *1677:CLK I *D sky130_fd_sc_hd__dfrtp_1
*I *1685:CLK I *D sky130_fd_sc_hd__dfrtp_1
*I *1682:CLK I *D sky130_fd_sc_hd__dfrtp_1
*I *1673:CLK I *D sky130_fd_sc_hd__dfrtp_1
*I *1658:CLK I *D sky130_fd_sc_hd__dfrtp_1
*I *1119:X O *D sky130_fd_sc_hd__clkbuf_8
*CAP
1 *1650:CLK 0
2 *1672:CLK 9.81943e-05
3 *1669:CLK 8.81629e-05
4 *1660:CLK 0.000164038
5 *1664:CLK 0
6 *1647:CLK 0.000152793
7 *1661:CLK 6.7745e-05
8 *1668:CLK 0.000105394
9 *1677:CLK 0
10 *1685:CLK 0.000186946
11 *1682:CLK 0.000182139
12 *1673:CLK 5.14084e-05
13 *1658:CLK 0.000135917
14 *1119:X 0
15 *80:134 0.000276229
16 *80:119 0.000316051
17 *80:112 0.000346234
18 *80:95 0.000436887
19 *80:93 0.000232356
20 *80:71 0.000211332
21 *80:62 0.000188937
22 *80:45 0.000436824
23 *80:14 0.000306494
24 *80:12 0.000467733
25 *80:6 0.000285353
26 *80:4 0.00025215
27 *1647:CLK *1575:A2 2.16719e-05
28 *1647:CLK *106:26 5.52302e-05
29 *1647:CLK *637:10 0.000196269
30 *1647:CLK *637:33 7.39741e-05
31 *1658:CLK *106:26 0
32 *1660:CLK *1588:B 8.23597e-06
33 *1660:CLK *1615:S 0.000199331
34 *1660:CLK *586:65 0
35 *1661:CLK *1601:A2 0.00020042
36 *1661:CLK *1636:S 2.31791e-05
37 *1661:CLK *1640:A1 7.02627e-05
38 *1668:CLK *1636:S 0.000312215
39 *1668:CLK *1677:D 0
40 *1668:CLK *664:8 7.02611e-05
41 *1669:CLK *1589:A2 5.71472e-05
42 *1669:CLK *1589:C1 5.39629e-06
43 *1669:CLK *586:65 0.000198491
44 *1672:CLK *1615:A1 2.89114e-05
45 *1672:CLK *586:65 0.000120355
46 *1673:CLK *106:26 7.77751e-05
47 *1682:CLK *1682:D 0
48 *1682:CLK *106:26 0
49 *1685:CLK *1135:S0 0
50 *1685:CLK *105:200 0.000298243
51 *1685:CLK *109:34 0.000443174
52 *80:6 *1682:D 8.76257e-05
53 *80:6 *105:200 2.32625e-05
54 *80:12 *1682:D 0.000186669
55 *80:12 *105:200 5.05484e-05
56 *80:62 *1572:B 0
57 *80:62 *1601:A2 0.000251915
58 *80:62 *1636:S 0.000177948
59 *80:62 *650:12 3.01126e-05
60 *80:71 *1601:A2 0.000205264
61 *80:71 *1636:S 0.000196728
62 *80:93 *1572:B 0
63 *80:93 *1633:A1 5.19842e-06
64 *80:93 *1633:S 0.00022266
65 *80:93 *1682:D 6.87574e-05
66 *80:93 *105:200 0.000186161
67 *80:93 *647:6 6.78055e-06
68 *80:112 *1587:A 9.41642e-05
69 *80:112 *1587:B 2.06112e-05
70 *80:112 *1589:A1 0
71 *80:112 *1590:A2 2.42516e-05
72 *80:112 *1590:B1 4.87953e-05
73 *80:112 *1664:D 9.0145e-05
74 *80:112 *626:98 3.24989e-05
75 *80:112 *642:12 9.33978e-07
76 *80:119 *1589:C1 1.92905e-05
77 *80:119 *1664:D 6.61546e-05
78 *80:134 *1589:C1 7.84041e-05
79 *80:134 *1615:A1 0
80 *1119:A *1682:CLK 0
81 *1628:A0 *80:112 4.74038e-05
82 *1633:A0 *80:93 0.0004348
83 *1682:RESET_B *80:93 0
84 *1685:RESET_B *80:12 0
85 *1685:RESET_B *80:45 6.67621e-05
86 *1685:RESET_B *80:62 2.66026e-05
87 *2:36 *1660:CLK 7.00295e-05
88 *2:670 *1647:CLK 2.89016e-05
89 *2:702 *80:62 0.000105328
90 *9:11 *1660:CLK 7.5324e-05
91 *20:13 *1647:CLK 2.26327e-05
92 *20:13 *80:112 0.000127075
93 *34:9 *1669:CLK 9.95421e-05
94 *34:9 *1672:CLK 6.81828e-05
95 *36:5 *1647:CLK 0.000360816
96 *36:5 *80:112 0.000398719
97 *39:17 *1668:CLK 0.000229456
*RES
1 *1119:X *80:4 9.3 
2 *80:4 *80:6 1.31189 
3 *80:6 *80:12 10.0693 
4 *80:12 *80:14 3.11883 
5 *80:14 *1658:CLK 17.3396 
6 *80:14 *1673:CLK 15.6812 
7 *80:12 *1682:CLK 18.5277 
8 *80:6 *80:45 7.61883 
9 *80:45 *1685:CLK 33.6664 
10 *80:45 *80:62 7.74756 
11 *80:62 *1677:CLK 13.8 
12 *80:62 *80:71 3.53962 
13 *80:71 *1668:CLK 19.0971 
14 *80:71 *1661:CLK 17.3396 
15 *80:4 *80:93 10.4456 
16 *80:93 *80:95 4.5 
17 *80:95 *1647:CLK 21.0278 
18 *80:95 *80:112 15.9852 
19 *80:112 *1664:CLK 9.3 
20 *80:112 *80:119 1.8812 
21 *80:119 *1660:CLK 24.7852 
22 *80:119 *80:134 7.51982 
23 *80:134 *1669:CLK 18.0822 
24 *80:134 *1672:CLK 17.8347 
25 *80:93 *1650:CLK 9.3 
*END

*D_NET *81 0.0131447
*CONN
*I *1352:CLK I *D sky130_fd_sc_hd__dfxtp_1
*I *1376:CLK I *D sky130_fd_sc_hd__dfxtp_1
*I *1400:CLK I *D sky130_fd_sc_hd__dfxtp_1
*I *1448:CLK I *D sky130_fd_sc_hd__dfxtp_1
*I *1670:CLK I *D sky130_fd_sc_hd__dfrtp_1
*I *1648:CLK I *D sky130_fd_sc_hd__dfrtp_1
*I *1686:CLK I *D sky130_fd_sc_hd__dfrtp_1
*I *1683:CLK I *D sky130_fd_sc_hd__dfrtp_1
*I *1652:CLK I *D sky130_fd_sc_hd__dfrtp_1
*I *1357:CLK I *D sky130_fd_sc_hd__dfxtp_1
*I *1453:CLK I *D sky130_fd_sc_hd__dfxtp_1
*I *1405:CLK I *D sky130_fd_sc_hd__dfxtp_1
*I *1120:X O *D sky130_fd_sc_hd__clkbuf_8
*CAP
1 *1352:CLK 2.29842e-05
2 *1376:CLK 0
3 *1400:CLK 0
4 *1448:CLK 5.4708e-05
5 *1670:CLK 9.27121e-06
6 *1648:CLK 0.000263329
7 *1686:CLK 0
8 *1683:CLK 0
9 *1652:CLK 0.00012641
10 *1357:CLK 0
11 *1453:CLK 0
12 *1405:CLK 8.51731e-05
13 *1120:X 0.000336529
14 *81:97 0.000319805
15 *81:88 0.000128224
16 *81:84 0.000298178
17 *81:69 0.000727814
18 *81:40 0.000434192
19 *81:34 0.000461305
20 *81:32 0.000583012
21 *81:28 0.000570733
22 *81:20 0.00103417
23 *81:12 0.000727678
24 *81:10 0.000482569
25 *1352:CLK *128:16 5.52238e-05
26 *1352:CLK *490:30 0
27 *1405:CLK *1136:S1 0.000174805
28 *1405:CLK *1311:S 1.24368e-05
29 *1405:CLK *1314:S 0.000173083
30 *1405:CLK *1325:A1 9.60939e-05
31 *1405:CLK *1453:D 2.77258e-05
32 *1448:CLK *1139:A0 0.00016834
33 *1448:CLK *445:80 6.09889e-05
34 *1648:CLK *1580:A2 0
35 *1648:CLK *1591:A2 3.06878e-06
36 *1648:CLK *1648:D 7.61932e-05
37 *1648:CLK *1670:D 7.36467e-05
38 *1648:CLK *602:30 2.56089e-05
39 *1648:CLK *616:12 7.07155e-06
40 *1648:CLK *626:58 0.000192095
41 *1652:CLK *1652:D 2.89114e-05
42 *1652:CLK *490:30 0.000195386
43 *1652:CLK *493:38 0
44 *1670:CLK *492:28 5.52302e-05
45 *1670:CLK *493:38 2.44318e-05
46 *81:10 *108:10 0
47 *81:10 *492:28 0.000361498
48 *81:12 *1238:S 8.2395e-05
49 *81:12 *1352:D 0
50 *81:20 *1092:A0 0.000121629
51 *81:20 *1138:S0 9.39994e-05
52 *81:20 *1209:A1 0
53 *81:20 *1238:S 4.46186e-06
54 *81:20 *1352:D 0
55 *81:20 *1400:D 0.000317239
56 *81:20 *94:18 4.4138e-05
57 *81:20 *104:55 0
58 *81:20 *108:10 0
59 *81:20 *114:14 0
60 *81:20 *402:12 0
61 *81:20 *444:34 4.36551e-06
62 *81:20 *444:40 3.55578e-05
63 *81:28 *1092:A0 6.68971e-06
64 *81:28 *1163:A0 9.90431e-05
65 *81:28 *1163:S1 5.33005e-05
66 *81:28 *1357:D 0.000143491
67 *81:28 *109:115 0.00012782
68 *81:28 *111:12 0.000384373
69 *81:28 *280:16 0.000238893
70 *81:28 *298:20 0
71 *81:32 *1139:A0 0.00026353
72 *81:32 *445:80 0.000122155
73 *81:34 *1139:S0 2.74981e-06
74 *81:34 *1163:S0 6.88749e-05
75 *81:34 *442:74 1.73191e-05
76 *81:34 *443:32 2.9404e-05
77 *81:34 *443:34 5.25192e-06
78 *81:34 *445:80 5.48376e-05
79 *81:40 *1163:S0 9.95368e-05
80 *81:40 *1325:A1 0.000266196
81 *81:40 *1453:D 7.05837e-05
82 *81:40 *104:82 0
83 *81:40 *109:115 0
84 *81:40 *280:16 0.000224583
85 *81:40 *298:20 0
86 *81:40 *443:34 7.68161e-05
87 *81:40 *443:68 0
88 *81:69 *94:18 2.11419e-05
89 *81:69 *106:115 0
90 *81:69 *109:115 2.94694e-05
91 *81:69 *111:12 0
92 *81:69 *111:164 0
93 *81:69 *442:74 0.000187361
94 *81:69 *445:80 2.58997e-05
95 *81:84 *1594:B 1.76135e-05
96 *81:84 *1652:D 0
97 *81:84 *106:115 0
98 *81:84 *111:164 0
99 *81:84 *492:28 0.000397918
100 *81:84 *493:38 0.00021528
101 *81:88 *1670:D 7.58664e-05
102 *81:88 *109:107 8.89289e-05
103 *81:88 *626:58 3.34366e-05
104 *81:97 *1670:D 7.58829e-05
105 *81:97 *626:58 0.000193818
106 *1120:A *81:10 2.59355e-05
107 *1121:A *81:10 0.000175502
108 *1652:RESET_B *81:10 0
109 *2:201 *81:10 0
110 *68:226 *81:10 4.34472e-05
*RES
1 *1120:X *81:10 25.8545 
2 *81:10 *81:12 3.11883 
3 *81:12 *81:20 22.0743 
4 *81:20 *81:28 24.6189 
5 *81:28 *81:32 8.08913 
6 *81:32 *81:34 3.53962 
7 *81:34 *81:40 17.3218 
8 *81:40 *1405:CLK 22.7307 
9 *81:40 *1453:CLK 9.3 
10 *81:34 *1357:CLK 13.8 
11 *81:32 *81:69 11.0149 
12 *81:69 *1652:CLK 18.5277 
13 *81:69 *81:84 13.3367 
14 *81:84 *81:88 8.03962 
15 *81:88 *1683:CLK 13.8 
16 *81:88 *81:97 3.53962 
17 *81:97 *1686:CLK 13.8 
18 *81:97 *1648:CLK 22.0674 
19 *81:84 *1670:CLK 10.0426 
20 *81:28 *1448:CLK 11.7505 
21 *81:20 *1400:CLK 9.3 
22 *81:12 *1376:CLK 13.8 
23 *81:10 *1352:CLK 14.5426 
*END

*D_NET *82 0.0102606
*CONN
*I *1543:CLK I *D sky130_fd_sc_hd__dfrtp_1
*I *1492:CLK I *D sky130_fd_sc_hd__dfrtp_1
*I *1497:CLK I *D sky130_fd_sc_hd__dfrtp_1
*I *1490:CLK I *D sky130_fd_sc_hd__dfrtp_1
*I *1535:CLK I *D sky130_fd_sc_hd__dfrtp_1
*I *1495:CLK I *D sky130_fd_sc_hd__dfrtp_1
*I *1537:CLK I *D sky130_fd_sc_hd__dfrtp_1
*I *1542:CLK I *D sky130_fd_sc_hd__dfrtp_1
*I *1644:CLK I *D sky130_fd_sc_hd__dfrtp_1
*I *1643:CLK I *D sky130_fd_sc_hd__dfrtp_1
*I *1540:CLK I *D sky130_fd_sc_hd__dfrtp_1
*I *1541:CLK I *D sky130_fd_sc_hd__dfrtp_1
*I *1121:X O *D sky130_fd_sc_hd__clkbuf_8
*CAP
1 *1543:CLK 0.000234837
2 *1492:CLK 0.000238787
3 *1497:CLK 0
4 *1490:CLK 0
5 *1535:CLK 0
6 *1495:CLK 0.000246472
7 *1537:CLK 5.40981e-05
8 *1542:CLK 0
9 *1644:CLK 0
10 *1643:CLK 0.000109765
11 *1540:CLK 0
12 *1541:CLK 0.000318731
13 *1121:X 0
14 *82:119 0.000396795
15 *82:92 0.000522233
16 *82:90 0.000655866
17 *82:88 0.00056377
18 *82:77 0.0002317
19 *82:73 0.000529538
20 *82:48 0.000503351
21 *82:20 0.000524793
22 *82:18 0.000889395
23 *82:12 0.000361927
24 *82:4 0.000214937
25 *1492:CLK *1521:B 0
26 *1492:CLK *1522:B 0
27 *1492:CLK *493:14 4.98506e-05
28 *1492:CLK *674:12 0
29 *1495:CLK *1495:D 0
30 *1495:CLK *443:20 0.000175493
31 *1495:CLK *471:18 0
32 *1541:CLK *1266:A0 1.33343e-05
33 *1541:CLK *1266:S 5.52302e-05
34 *1541:CLK *104:24 7.65804e-05
35 *1541:CLK *104:30 1.02821e-05
36 *1541:CLK *105:16 0
37 *1541:CLK *314:10 0
38 *1541:CLK *444:34 5.30209e-05
39 *1541:CLK *445:60 0.000136622
40 *1543:CLK *1520:C 4.46186e-06
41 *1543:CLK *1522:C 0
42 *1543:CLK *1526:A 0
43 *1543:CLK *1527:S 1.65558e-05
44 *1543:CLK *1531:A_N 6.94449e-05
45 *1543:CLK *493:26 1.69497e-05
46 *1543:CLK *508:22 0
47 *1543:CLK *520:10 0.000177066
48 *1643:CLK *1600:A2 0
49 *1643:CLK *1644:D 0.000260573
50 *1643:CLK *492:28 0
51 *1643:CLK *634:10 0
52 *82:12 *1520:C 0
53 *82:12 *1542:D 5.2081e-05
54 *82:12 *492:18 2.89114e-05
55 *82:12 *502:8 0.000184507
56 *82:18 *1511:A_N 0
57 *82:18 *1513:C 4.27935e-05
58 *82:18 *1513:D 2.3541e-05
59 *82:18 *1514:B 0.000312209
60 *82:18 *1520:C 5.52302e-05
61 *82:18 *490:22 0.000298875
62 *82:18 *490:30 0.000268409
63 *82:18 *491:28 0
64 *82:18 *492:18 0
65 *82:18 *493:38 0
66 *82:20 *1511:A_N 7.79781e-06
67 *82:20 *105:16 0
68 *82:20 *128:14 0.000157906
69 *82:20 *314:10 0
70 *82:48 *1511:A_N 1.65558e-05
71 *82:48 *1634:S 0
72 *82:48 *1644:D 7.32955e-05
73 *82:48 *112:30 0.000118748
74 *82:48 *112:32 1.59782e-05
75 *82:48 *492:28 0
76 *82:48 *626:10 5.16779e-05
77 *82:73 *1520:B 2.27189e-05
78 *82:73 *1520:C 0
79 *82:73 *1527:A0 9.71197e-05
80 *82:73 *1527:A1 0.000309273
81 *82:73 *1527:S 2.44318e-05
82 *82:73 *492:18 4.72818e-05
83 *82:73 *499:10 3.40043e-05
84 *82:77 *1520:B 8.94573e-05
85 *82:77 *1522:B 0
86 *82:77 *499:10 0.000127388
87 *82:88 *499:10 1.39726e-05
88 *82:90 *1520:A 0
89 *82:90 *508:22 0
90 *82:90 *514:10 0
91 *82:90 *674:12 0
92 *82:92 *1535:D 0
93 *82:92 *1541:D 0
94 *82:92 *514:10 0
95 *82:119 *1520:A 0
96 *82:119 *506:8 0
97 *82:119 *508:22 0
98 *82:119 *674:12 0
99 *1108:A *82:92 0
100 *1490:RESET_B *82:90 0
101 *1490:RESET_B *82:92 0
102 *1495:RESET_B *1495:CLK 0
103 *1495:RESET_B *82:92 0
104 *1634:A0 *1643:CLK 7.40249e-05
105 *2:413 *82:92 0
*RES
1 *1121:X *82:4 9.3 
2 *82:4 *82:12 12.8614 
3 *82:12 *82:18 15.5149 
4 *82:18 *82:20 6.06439 
5 *82:20 *1541:CLK 23.9486 
6 *82:20 *1540:CLK 13.8 
7 *82:18 *82:48 16.5793 
8 *82:48 *1643:CLK 23.3 
9 *82:48 *1644:CLK 9.3 
10 *82:12 *1542:CLK 9.3 
11 *82:4 *82:73 6.43568 
12 *82:73 *82:77 5.32181 
13 *82:77 *1537:CLK 10.7357 
14 *82:77 *82:88 5.24258 
15 *82:88 *82:90 9.00995 
16 *82:90 *82:92 6.90598 
17 *82:92 *1495:CLK 21.4981 
18 *82:92 *1535:CLK 13.8 
19 *82:90 *1490:CLK 13.8 
20 *82:88 *82:119 4.38121 
21 *82:119 *1497:CLK 13.8 
22 *82:119 *1492:CLK 20.706 
23 *82:73 *1543:CLK 25.6268 
*END

*D_NET *83 0.0126768
*CONN
*I *1655:CLK I *D sky130_fd_sc_hd__dfrtp_1
*I *1653:CLK I *D sky130_fd_sc_hd__dfrtp_1
*I *1681:CLK I *D sky130_fd_sc_hd__dfrtp_1
*I *1646:CLK I *D sky130_fd_sc_hd__dfrtp_1
*I *1676:CLK I *D sky130_fd_sc_hd__dfrtp_1
*I *1666:CLK I *D sky130_fd_sc_hd__dfrtp_1
*I *1649:CLK I *D sky130_fd_sc_hd__dfrtp_1
*I *1684:CLK I *D sky130_fd_sc_hd__dfrtp_1
*I *1674:CLK I *D sky130_fd_sc_hd__dfrtp_1
*I *1656:CLK I *D sky130_fd_sc_hd__dfrtp_1
*I *1665:CLK I *D sky130_fd_sc_hd__dfrtp_1
*I *1657:CLK I *D sky130_fd_sc_hd__dfrtp_1
*I *1122:X O *D sky130_fd_sc_hd__clkbuf_8
*CAP
1 *1655:CLK 0
2 *1653:CLK 0.000137424
3 *1681:CLK 0.000127454
4 *1646:CLK 0
5 *1676:CLK 0
6 *1666:CLK 0.000309357
7 *1649:CLK 3.89844e-05
8 *1684:CLK 0.000256772
9 *1674:CLK 0
10 *1656:CLK 0.000144472
11 *1665:CLK 0.000353847
12 *1657:CLK 0
13 *1122:X 4.81347e-05
14 *83:122 0.00034303
15 *83:75 0.000423809
16 *83:55 0.000391008
17 *83:49 0.000249907
18 *83:47 0.000397031
19 *83:31 0.000615137
20 *83:20 0.000542403
21 *83:16 0.000984755
22 *83:12 0.000485532
23 *83:8 0.000409477
24 *1649:CLK *1649:D 4.89174e-05
25 *1649:CLK *109:107 0.000130583
26 *1653:CLK *1560:A1 8.20268e-05
27 *1653:CLK *1560:A2 3.47641e-06
28 *1653:CLK *1602:A3 1.90936e-05
29 *1653:CLK *581:20 0
30 *1653:CLK *583:18 0.000108692
31 *1653:CLK *626:10 0.000150507
32 *1653:CLK *626:202 0.000214097
33 *1656:CLK *1561:A 0
34 *1656:CLK *1635:S 0
35 *1656:CLK *1665:D 9.33978e-07
36 *1656:CLK *580:80 0
37 *1665:CLK *1561:A 0
38 *1665:CLK *1581:C 6.05161e-06
39 *1665:CLK *1635:A1 0
40 *1665:CLK *1665:D 4.74869e-05
41 *1665:CLK *586:32 0
42 *1665:CLK *586:42 0
43 *1665:CLK *625:170 2.42516e-05
44 *1665:CLK *649:10 0
45 *1666:CLK *108:192 0.000143035
46 *1666:CLK *108:194 6.05161e-06
47 *1666:CLK *581:83 0
48 *1681:CLK *1585:A1 5.94701e-05
49 *1681:CLK *84:34 0
50 *1681:CLK *581:65 2.2355e-05
51 *1681:CLK *581:187 2.78481e-05
52 *1681:CLK *581:198 3.47641e-06
53 *1684:CLK *1620:A1 0.000111394
54 *1684:CLK *1623:A1 5.83304e-05
55 *1684:CLK *109:107 0.000131481
56 *1684:CLK *580:289 2.98435e-05
57 *1684:CLK *580:297 0.000174542
58 *1684:CLK *582:44 0.000524612
59 *83:8 *1585:B1 1.58163e-05
60 *83:8 *1649:D 5.52302e-05
61 *83:12 *1585:A1 0.000147626
62 *83:12 *84:34 0
63 *83:12 *581:65 6.0425e-05
64 *83:12 *582:14 0
65 *83:12 *609:28 0
66 *83:16 *1646:D 9.02585e-05
67 *83:16 *586:22 1.25404e-05
68 *83:16 *625:183 0
69 *83:20 *1570:A3 4.06087e-07
70 *83:20 *1583:A1 0.000121587
71 *83:20 *1608:A1 0.000148577
72 *83:20 *1627:A1 5.14853e-05
73 *83:20 *1646:D 1.97897e-05
74 *83:20 *580:95 2.49484e-05
75 *83:20 *586:32 0.000150355
76 *83:20 *587:94 0.000140442
77 *83:20 *625:170 0.000311023
78 *83:20 *626:82 0.000122607
79 *83:31 *580:95 0.000112726
80 *83:47 *1574:A1 0
81 *83:47 *1574:B2 9.33978e-07
82 *83:47 *1582:A 4.72917e-05
83 *83:47 *1585:A1 8.46044e-06
84 *83:47 *1585:B1 0.000166896
85 *83:47 *1646:D 9.90367e-05
86 *83:47 *1676:D 6.57032e-05
87 *83:47 *587:73 0
88 *83:47 *588:85 0
89 *83:47 *626:90 0
90 *83:49 *1574:B2 9.20581e-06
91 *83:49 *1582:A 2.89016e-05
92 *83:49 *1585:B1 1.02936e-05
93 *83:55 *1574:B2 1.01403e-05
94 *83:55 *1579:C1 0.00016705
95 *83:55 *1585:B1 3.69047e-06
96 *83:55 *109:107 3.81736e-05
97 *83:55 *581:77 0.000173365
98 *83:55 *581:83 1.74352e-05
99 *83:55 *582:44 4.32309e-05
100 *83:75 *1582:A 0
101 *83:75 *1649:D 2.8266e-06
102 *83:75 *108:192 0
103 *83:75 *109:107 0.000266559
104 *83:75 *630:12 0.000127169
105 *83:122 *1585:A1 3.81226e-05
106 *83:122 *1585:B1 1.92905e-05
107 *83:122 *1603:A1 2.32517e-05
108 *83:122 *1603:A2 4.19624e-06
109 *83:122 *1606:B1 0.000149421
110 *83:122 *1649:D 4.38128e-05
111 *83:122 *581:20 0
112 *83:122 *581:65 0
113 *83:122 *582:14 0
114 *83:122 *626:202 8.49318e-05
115 *83:122 *627:14 0.000146464
116 *83:122 *627:26 1.69115e-05
117 *83:122 *627:62 5.72126e-05
118 *1605:C *83:20 0.000145902
119 *1635:A0 *1665:CLK 0
120 *1665:RESET_B *1656:CLK 8.71192e-05
121 *1676:RESET_B *83:16 0.000143557
122 *1676:RESET_B *83:47 9.46332e-05
123 *11:22 *1684:CLK 0
124 *16:15 *1684:CLK 7.76773e-05
125 *24:9 *83:20 0
126 *29:13 *83:20 0.000176293
127 *29:13 *83:31 0.000108717
128 *40:11 *1684:CLK 0
*RES
1 *1122:X *83:8 10.6366 
2 *83:8 *83:12 8.88121 
3 *83:12 *83:16 10.3664 
4 *83:16 *83:20 21.0842 
5 *83:20 *1657:CLK 13.8 
6 *83:20 *83:31 8.46042 
7 *83:31 *1665:CLK 17.4436 
8 *83:31 *1656:CLK 12.8891 
9 *83:16 *83:47 11.5595 
10 *83:47 *83:49 1.31189 
11 *83:49 *83:55 9.92082 
12 *83:55 *1674:CLK 13.8 
13 *83:55 *1684:CLK 27.0179 
14 *83:49 *83:75 9.302 
15 *83:75 *1649:CLK 16.0772 
16 *83:75 *1666:CLK 21.4238 
17 *83:47 *1676:CLK 9.3 
18 *83:16 *1646:CLK 9.3 
19 *83:12 *1681:CLK 16.9188 
20 *83:8 *83:122 12.8664 
21 *83:122 *1653:CLK 20.2852 
22 *83:122 *1655:CLK 13.8 
*END

*D_NET *84 0.0138447
*CONN
*I *1534:CLK I *D sky130_fd_sc_hd__dfrtp_1
*I *1498:CLK I *D sky130_fd_sc_hd__dfrtp_1
*I *1493:CLK I *D sky130_fd_sc_hd__dfrtp_1
*I *1538:CLK I *D sky130_fd_sc_hd__dfrtp_1
*I *1494:CLK I *D sky130_fd_sc_hd__dfrtp_1
*I *1499:CLK I *D sky130_fd_sc_hd__dfrtp_1
*I *1539:CLK I *D sky130_fd_sc_hd__dfrtp_1
*I *1491:CLK I *D sky130_fd_sc_hd__dfrtp_1
*I *1536:CLK I *D sky130_fd_sc_hd__dfrtp_1
*I *1663:CLK I *D sky130_fd_sc_hd__dfrtp_1
*I *1680:CLK I *D sky130_fd_sc_hd__dfrtp_1
*I *1679:CLK I *D sky130_fd_sc_hd__dfrtp_1
*I *1688:CLK I *D sky130_fd_sc_hd__dfrtp_1
*I *1645:CLK I *D sky130_fd_sc_hd__dfrtp_1
*I *1654:CLK I *D sky130_fd_sc_hd__dfrtp_1
*I *1496:CLK I *D sky130_fd_sc_hd__dfrtp_1
*I *1123:X O *D sky130_fd_sc_hd__clkbuf_8
*CAP
1 *1534:CLK 0
2 *1498:CLK 0.000259633
3 *1493:CLK 2.22331e-05
4 *1538:CLK 4.41721e-05
5 *1494:CLK 0
6 *1499:CLK 0.000118223
7 *1539:CLK 0
8 *1491:CLK 0
9 *1536:CLK 0.0001615
10 *1663:CLK 0
11 *1680:CLK 0
12 *1679:CLK 0.000155884
13 *1688:CLK 3.74391e-05
14 *1645:CLK 0
15 *1654:CLK 3.89418e-05
16 *1496:CLK 0.000227918
17 *1123:X 0
18 *84:179 0.000431571
19 *84:168 0.000329813
20 *84:159 0.000282158
21 *84:144 0.000373103
22 *84:135 0.000439361
23 *84:107 0.00041456
24 *84:99 0.000583762
25 *84:97 0.000109815
26 *84:72 0.000218497
27 *84:57 0.000302512
28 *84:47 0.000472083
29 *84:34 0.000606929
30 *84:23 0.000770299
31 *84:8 0.00067771
32 *84:4 0.000165556
33 *1496:CLK *1519:B 0
34 *1496:CLK *1546:A 7.77751e-05
35 *1496:CLK *1546:B 4.25427e-05
36 *1496:CLK *1654:D 0
37 *1498:CLK *1770:D 0
38 *1498:CLK *661:10 0
39 *1499:CLK *1499:D 3.18676e-05
40 *1499:CLK *522:18 9.90431e-05
41 *1499:CLK *527:14 2.35589e-05
42 *1536:CLK *1491:D 5.80311e-05
43 *1536:CLK *1496:D 2.65319e-06
44 *1536:CLK *1521:B 0
45 *1536:CLK *1532:A 0
46 *1536:CLK *1536:D 0.000186669
47 *1654:CLK *1585:A1 0
48 *1679:CLK *1630:A1 0
49 *1679:CLK *1679:D 0.000312184
50 *1688:CLK *1562:A 0.000180377
51 *84:8 *1546:A 0
52 *84:8 *1546:B 5.22029e-05
53 *84:23 *1548:A 4.00276e-06
54 *84:23 *1654:D 0.000145873
55 *84:23 *105:8 3.32631e-05
56 *84:23 *112:10 0.000118592
57 *84:23 *112:18 3.06878e-06
58 *84:23 *580:8 1.58163e-05
59 *84:23 *627:14 1.05952e-05
60 *84:34 *1565:B1 0.000127297
61 *84:34 *1632:A1 8.32171e-05
62 *84:34 *1681:D 3.92169e-05
63 *84:34 *581:198 0
64 *84:34 *582:14 0.000311861
65 *84:34 *609:28 3.19503e-05
66 *84:34 *618:14 0.000259226
67 *84:47 *1565:A2 7.36441e-05
68 *84:47 *1565:B1 2.48938e-05
69 *84:47 *1568:A1 0
70 *84:47 *1596:B1 0
71 *84:47 *1596:B2 4.19624e-06
72 *84:47 *586:22 0
73 *84:47 *618:14 0.000217413
74 *84:57 *1562:B 2.34423e-05
75 *84:57 *1639:S 0
76 *84:57 *579:12 0.000223266
77 *84:57 *580:45 2.40885e-05
78 *84:57 *580:64 3.53645e-05
79 *84:57 *629:8 4.884e-05
80 *84:57 *645:10 8.85532e-05
81 *84:72 *645:10 4.87953e-05
82 *84:97 *1546:A 5.52238e-05
83 *84:97 *1546:B 0.000142856
84 *84:97 *112:10 0.000357054
85 *84:107 *1519:B 0.000150625
86 *84:107 *1528:A 0.000260647
87 *84:107 *1536:D 0
88 *84:107 *1546:A 7.92879e-05
89 *84:135 *1519:A 1.92789e-05
90 *84:135 *1519:B 9.28778e-05
91 *84:135 *1521:B 0.000102207
92 *84:135 *1530:B 0
93 *84:135 *1532:C 1.58163e-05
94 *84:135 *112:10 2.50192e-05
95 *84:135 *517:12 4.89268e-05
96 *84:135 *522:18 2.42082e-05
97 *84:144 *517:12 2.19684e-05
98 *84:144 *522:18 4.8476e-05
99 *84:159 *522:18 0
100 *84:168 *522:18 0
101 *84:179 *522:18 0
102 *1496:RESET_B *1536:CLK 0.000101445
103 *1498:RESET_B *1498:CLK 0
104 *1508:RESET_B *1498:CLK 0
105 *1654:RESET_B *84:23 2.14757e-05
106 *1657:RESET_B *84:47 0.000222666
107 *1679:RESET_B *1538:CLK 0.000142856
108 *1680:RESET_B *84:72 2.59355e-05
109 *1681:CLK *84:34 0
110 *1688:RESET_B *1679:CLK 3.34366e-05
111 *1688:RESET_B *1688:CLK 0.000180377
112 *1770:CLK *1493:CLK 0
113 *1770:SET_B *1498:CLK 0
114 *2:276 *1496:CLK 0
115 *2:339 *84:23 0.000220865
116 *2:339 *84:107 0.000480723
117 *2:486 *84:144 0
118 *2:532 *1679:CLK 0.00024136
119 *2:572 *1679:CLK 0.000128868
120 *2:600 *1498:CLK 0
121 *2:600 *84:179 0
122 *11:14 *84:135 0
123 *29:13 *84:34 5.74562e-05
124 *44:23 *84:47 0.000235734
125 *51:24 *84:47 0
126 *83:12 *84:34 0
*RES
1 *1123:X *84:4 9.3 
2 *84:4 *84:8 6.35644 
3 *84:8 *1496:CLK 20.0624 
4 *84:8 *84:23 16.6288 
5 *84:23 *1654:CLK 10.3149 
6 *84:23 *84:34 16.8763 
7 *84:34 *1645:CLK 13.8 
8 *84:34 *84:47 14.4258 
9 *84:47 *84:57 16.1535 
10 *84:57 *1688:CLK 21.4188 
11 *84:57 *84:72 1.90595 
12 *84:72 *1679:CLK 25.206 
13 *84:72 *1680:CLK 9.3 
14 *84:47 *1663:CLK 9.3 
15 *84:4 *84:97 5.32181 
16 *84:97 *84:99 4.5 
17 *84:99 *84:107 14.2278 
18 *84:107 *1536:CLK 24.2901 
19 *84:107 *1491:CLK 9.3 
20 *84:99 *84:135 19.1486 
21 *84:135 *1539:CLK 13.8 
22 *84:135 *84:144 3.11883 
23 *84:144 *1499:CLK 17.5871 
24 *84:144 *84:159 3.96042 
25 *84:159 *1494:CLK 13.8 
26 *84:159 *84:168 3.53962 
27 *84:168 *1538:CLK 15.6812 
28 *84:168 *84:179 3.53962 
29 *84:179 *1493:CLK 14.5426 
30 *84:179 *1498:CLK 20.706 
31 *84:97 *1534:CLK 9.3 
*END

*D_NET *85 0.0136043
*CONN
*I *1388:CLK I *D sky130_fd_sc_hd__dfxtp_1
*I *1428:CLK I *D sky130_fd_sc_hd__dfxtp_1
*I *1426:CLK I *D sky130_fd_sc_hd__dfxtp_1
*I *1433:CLK I *D sky130_fd_sc_hd__dfxtp_1
*I *1417:CLK I *D sky130_fd_sc_hd__dfxtp_1
*I *1361:CLK I *D sky130_fd_sc_hd__dfxtp_1
*I *1366:CLK I *D sky130_fd_sc_hd__dfxtp_1
*I *1391:CLK I *D sky130_fd_sc_hd__dfxtp_1
*I *1431:CLK I *D sky130_fd_sc_hd__dfxtp_1
*I *1390:CLK I *D sky130_fd_sc_hd__dfxtp_1
*I *1350:CLK I *D sky130_fd_sc_hd__dfxtp_1
*I *1446:CLK I *D sky130_fd_sc_hd__dfxtp_1
*I *1430:CLK I *D sky130_fd_sc_hd__dfxtp_1
*I *1337:CLK I *D sky130_fd_sc_hd__dfxtp_1
*I *1124:X O *D sky130_fd_sc_hd__clkbuf_8
*CAP
1 *1388:CLK 0.000138248
2 *1428:CLK 3.84389e-05
3 *1426:CLK 0.0002425
4 *1433:CLK 0
5 *1417:CLK 0.000271621
6 *1361:CLK 0
7 *1366:CLK 0.0002136
8 *1391:CLK 0.00012152
9 *1431:CLK 0
10 *1390:CLK 1.71617e-05
11 *1350:CLK 0.000150219
12 *1446:CLK 0.000117353
13 *1430:CLK 2.23854e-05
14 *1337:CLK 5.96265e-05
15 *1124:X 0
16 *85:139 0.000453012
17 *85:66 0.000535794
18 *85:55 0.000499576
19 *85:49 0.000514607
20 *85:43 0.000477764
21 *85:41 0.000477906
22 *85:37 0.000639263
23 *85:33 0.000351343
24 *85:24 0.000237838
25 *85:20 0.000527428
26 *85:14 0.000309409
27 *85:8 0.000352194
28 *85:4 0.000179332
29 *1337:CLK *1337:D 0.000146853
30 *1337:CLK *114:99 0.000109185
31 *1337:CLK *286:22 6.97685e-05
32 *1350:CLK *1350:D 3.18676e-05
33 *1350:CLK *1446:D 0
34 *1350:CLK *110:97 0
35 *1366:CLK *1224:A1 0.000273269
36 *1366:CLK *1224:S 0.000132758
37 *1366:CLK *1225:S 0.000144788
38 *1366:CLK *1290:A1 7.09054e-05
39 *1366:CLK *1366:D 0.000576429
40 *1366:CLK *110:42 0.000274288
41 *1366:CLK *110:46 9.02916e-05
42 *1366:CLK *283:22 6.62783e-05
43 *1388:CLK *1219:S 1.55953e-05
44 *1388:CLK *105:76 0.00048746
45 *1388:CLK *261:24 0.000210732
46 *1388:CLK *285:26 4.27437e-05
47 *1390:CLK *1430:D 0
48 *1391:CLK *1172:A2 3.18676e-05
49 *1391:CLK *1299:A0 9.75849e-06
50 *1391:CLK *1299:S 0
51 *1391:CLK *1300:A0 2.89114e-05
52 *1417:CLK *114:99 0.000114178
53 *1417:CLK *114:112 0
54 *1417:CLK *311:73 0.000178154
55 *1426:CLK *1295:A1 0
56 *1426:CLK *1295:S 1.92905e-05
57 *1426:CLK *108:68 0
58 *1426:CLK *273:26 0.000316384
59 *1426:CLK *274:18 0.000125873
60 *1426:CLK *285:26 0
61 *1426:CLK *305:28 0
62 *1428:CLK *1295:S 6.97494e-05
63 *1428:CLK *273:26 0.000172309
64 *85:8 *1219:S 8.46507e-06
65 *85:8 *1285:A1 5.33005e-05
66 *85:8 *105:76 4.27935e-05
67 *85:14 *1189:A1 0.000203557
68 *85:14 *1219:S 0.000106455
69 *85:14 *1433:D 0.000149059
70 *85:14 *444:168 6.34697e-05
71 *85:20 *1141:A3 0
72 *85:20 *1189:S 4.19671e-05
73 *85:20 *1219:S 7.15962e-05
74 *85:20 *1285:A0 7.07676e-05
75 *85:20 *444:168 0.000102207
76 *85:24 *1141:A3 0
77 *85:24 *1189:A0 0
78 *85:24 *1189:S 5.67246e-05
79 *85:33 *1337:D 0.000217141
80 *85:33 *114:99 0.000151619
81 *85:33 *286:22 0.000199137
82 *85:33 *419:8 2.59355e-05
83 *85:37 *1189:A0 0.000130576
84 *85:37 *1189:A1 0.000128868
85 *85:37 *1308:A1 0
86 *85:37 *1366:D 0
87 *85:37 *283:22 0
88 *85:41 *1299:S 0.000182799
89 *85:41 *1431:D 0.000157906
90 *85:41 *110:91 0.00010726
91 *85:43 *1299:A0 1.89009e-05
92 *85:43 *1431:D 0.000322387
93 *85:43 *111:76 0
94 *85:49 *1430:D 0
95 *85:49 *1431:D 0
96 *85:55 *1390:D 7.28909e-06
97 *85:66 *1350:D 0
98 *85:66 *1390:D 0
99 *85:66 *1430:D 8.95186e-05
100 *85:66 *110:97 0
101 *85:139 *1189:A1 3.17148e-05
102 *85:139 *1295:A1 3.9883e-05
103 *85:139 *261:14 0
104 *85:139 *305:28 6.5185e-05
105 *1117:A *85:14 0
106 *1117:A *85:139 0
107 *68:100 *85:139 0
*RES
1 *1124:X *85:4 9.3 
2 *85:4 *85:8 5.81189 
3 *85:8 *85:14 11.6287 
4 *85:14 *85:20 11.3317 
5 *85:20 *85:24 7.19803 
6 *85:24 *1337:CLK 12.8891 
7 *85:24 *85:33 5.86637 
8 *85:33 *85:37 11.406 
9 *85:37 *85:41 11.406 
10 *85:41 *85:43 6.43568 
11 *85:43 *85:49 15.906 
12 *85:49 *85:55 5.89112 
13 *85:55 *1430:CLK 9.89406 
14 *85:55 *85:66 7.45053 
15 *85:66 *1446:CLK 21.4188 
16 *85:66 *1350:CLK 13.4584 
17 *85:49 *1390:CLK 10.0426 
18 *85:43 *1431:CLK 9.3 
19 *85:41 *1391:CLK 12.3198 
20 *85:37 *1366:CLK 28.7753 
21 *85:33 *1361:CLK 9.3 
22 *85:20 *1417:CLK 22.3892 
23 *85:14 *1433:CLK 9.3 
24 *85:8 *85:139 8.7822 
25 *85:139 *1426:CLK 25.9981 
26 *85:139 *1428:CLK 11.7505 
27 *85:4 *1388:CLK 16.8743 
*END

*D_NET *86 0.0127187
*CONN
*I *1336:CLK I *D sky130_fd_sc_hd__dfxtp_1
*I *1416:CLK I *D sky130_fd_sc_hd__dfxtp_1
*I *1365:CLK I *D sky130_fd_sc_hd__dfxtp_1
*I *1339:CLK I *D sky130_fd_sc_hd__dfxtp_1
*I *1437:CLK I *D sky130_fd_sc_hd__dfxtp_1
*I *1334:CLK I *D sky130_fd_sc_hd__dfxtp_1
*I *1414:CLK I *D sky130_fd_sc_hd__dfxtp_1
*I *1341:CLK I *D sky130_fd_sc_hd__dfxtp_1
*I *1419:CLK I *D sky130_fd_sc_hd__dfxtp_1
*I *1338:CLK I *D sky130_fd_sc_hd__dfxtp_1
*I *1434:CLK I *D sky130_fd_sc_hd__dfxtp_1
*I *1418:CLK I *D sky130_fd_sc_hd__dfxtp_1
*I *1362:CLK I *D sky130_fd_sc_hd__dfxtp_1
*I *1421:CLK I *D sky130_fd_sc_hd__dfxtp_1
*I *1363:CLK I *D sky130_fd_sc_hd__dfxtp_1
*I *1125:X O *D sky130_fd_sc_hd__clkbuf_8
*CAP
1 *1336:CLK 7.63489e-05
2 *1416:CLK 3.14135e-05
3 *1365:CLK 0
4 *1339:CLK 6.5439e-05
5 *1437:CLK 0
6 *1334:CLK 0.000261016
7 *1414:CLK 0
8 *1341:CLK 0
9 *1419:CLK 0.000390938
10 *1338:CLK 0
11 *1434:CLK 0.000113753
12 *1418:CLK 0.000110132
13 *1362:CLK 0.000684245
14 *1421:CLK 7.16904e-05
15 *1363:CLK 0.000204917
16 *1125:X 3.04867e-05
17 *86:159 0.000321296
18 *86:150 0.00031205
19 *86:118 0.00050586
20 *86:109 0.000462708
21 *86:58 0.000843864
22 *86:56 0.000307567
23 *86:54 0.000258965
24 *86:52 0.000652276
25 *86:37 0.000323769
26 *86:35 0.000406704
27 *86:31 0.000626701
28 *86:25 0.000608681
29 *86:23 0.000203803
30 *86:8 0.000340689
31 *1334:CLK *1234:A0 0
32 *1334:CLK *1281:A0 0.000129595
33 *1334:CLK *1281:S 4.01768e-05
34 *1334:CLK *1414:D 0.000130488
35 *1336:CLK *273:10 0
36 *1336:CLK *283:8 0.000171835
37 *1339:CLK *1435:D 0
38 *1339:CLK *278:20 0
39 *1362:CLK *1147:A2 0
40 *1362:CLK *1286:A0 1.02504e-05
41 *1362:CLK *1418:D 2.24258e-05
42 *1362:CLK *108:70 0
43 *1362:CLK *309:47 0
44 *1362:CLK *444:206 0.000102207
45 *1362:CLK *444:216 0
46 *1363:CLK *1190:A1 3.69047e-06
47 *1363:CLK *1305:A0 0.000227955
48 *1363:CLK *1419:D 2.24782e-05
49 *1363:CLK *1435:D 0.000382541
50 *1363:CLK *273:10 0
51 *1363:CLK *283:8 0.000401278
52 *1363:CLK *311:18 7.49387e-06
53 *1416:CLK *277:30 0.000184745
54 *1416:CLK *293:14 0.000184745
55 *1418:CLK *1418:D 8.82363e-05
56 *1419:CLK *1190:A1 0
57 *1419:CLK *1190:S 0
58 *1419:CLK *1289:A0 0.000137983
59 *1419:CLK *1338:D 7.05689e-06
60 *1419:CLK *1421:D 0
61 *1419:CLK *309:24 0.000188586
62 *1419:CLK *309:37 0.000369781
63 *1434:CLK *1286:A0 3.81416e-06
64 *1434:CLK *1286:A1 0.000185643
65 *1434:CLK *1338:D 0
66 *86:8 *1435:D 6.05161e-06
67 *86:23 *273:10 0
68 *86:23 *283:8 0.000168428
69 *86:31 *1161:S0 0
70 *86:31 *1307:A1 0
71 *86:31 *1421:D 0
72 *86:31 *1437:D 0.00013001
73 *86:31 *278:20 0
74 *86:31 *311:34 0.000142844
75 *86:35 *1421:D 0
76 *86:35 *1437:D 7.03393e-05
77 *86:37 *1437:D 5.83233e-05
78 *86:52 *309:37 0
79 *86:54 *309:37 0
80 *86:56 *309:37 0
81 *86:56 *309:47 0
82 *86:58 *1286:A0 8.49318e-05
83 *86:58 *1418:D 3.01126e-05
84 *86:58 *309:47 0
85 *86:109 *1341:D 0
86 *86:109 *1437:D 0.000133012
87 *86:109 *311:34 0
88 *86:118 *1341:D 0
89 *86:118 *1414:D 1.19402e-05
90 *86:150 *273:10 0
91 *86:150 *283:8 0.000196728
92 *86:159 *1223:A1 8.15095e-05
93 *86:159 *273:10 0
94 *86:159 *283:8 0.000386184
95 *78:29 *1362:CLK 0
*RES
1 *1125:X *86:8 14.5426 
2 *86:8 *1363:CLK 24.8892 
3 *86:8 *86:23 3.11883 
4 *86:23 *86:25 4.5 
5 *86:25 *86:31 15.0248 
6 *86:31 *86:35 6.95051 
7 *86:35 *86:37 3.32922 
8 *86:37 *1421:CLK 15.6688 
9 *86:37 *86:52 4.17081 
10 *86:52 *86:54 3.11883 
11 *86:54 *86:56 3.96042 
12 *86:56 *86:58 2.27724 
13 *86:58 *1362:CLK 31.4486 
14 *86:58 *1418:CLK 16.8693 
15 *86:56 *1434:CLK 17.3891 
16 *86:54 *1338:CLK 13.8 
17 *86:52 *1419:CLK 27.6367 
18 *86:35 *86:109 6.90598 
19 *86:109 *1341:CLK 13.8 
20 *86:109 *86:118 6.90598 
21 *86:118 *1414:CLK 13.8 
22 *86:118 *1334:CLK 23.8743 
23 *86:31 *1437:CLK 9.3 
24 *86:25 *1339:CLK 11.1812 
25 *86:23 *86:150 3.53962 
26 *86:150 *1365:CLK 13.8 
27 *86:150 *86:159 6.90598 
28 *86:159 *1416:CLK 16.2505 
29 *86:159 *1336:CLK 16.9188 
*END

*D_NET *87 0.0149769
*CONN
*I *1424:CLK I *D sky130_fd_sc_hd__dfxtp_1
*I *1432:CLK I *D sky130_fd_sc_hd__dfxtp_1
*I *1360:CLK I *D sky130_fd_sc_hd__dfxtp_1
*I *1445:CLK I *D sky130_fd_sc_hd__dfxtp_1
*I *1349:CLK I *D sky130_fd_sc_hd__dfxtp_1
*I *1346:CLK I *D sky130_fd_sc_hd__dfxtp_1
*I *1442:CLK I *D sky130_fd_sc_hd__dfxtp_1
*I *1386:CLK I *D sky130_fd_sc_hd__dfxtp_1
*I *1435:CLK I *D sky130_fd_sc_hd__dfxtp_1
*I *1429:CLK I *D sky130_fd_sc_hd__dfxtp_1
*I *1389:CLK I *D sky130_fd_sc_hd__dfxtp_1
*I *1126:X O *D sky130_fd_sc_hd__clkbuf_8
*CAP
1 *1424:CLK 0.00041769
2 *1432:CLK 0.000242687
3 *1360:CLK 0.000164192
4 *1445:CLK 0
5 *1349:CLK 3.1355e-05
6 *1346:CLK 7.72331e-05
7 *1442:CLK 0
8 *1386:CLK 0.000333888
9 *1435:CLK 0.000617376
10 *1429:CLK 0
11 *1389:CLK 0
12 *1126:X 7.66853e-05
13 *87:92 0.000583183
14 *87:88 0.000832026
15 *87:79 0.000313503
16 *87:49 0.000681983
17 *87:43 0.000758654
18 *87:39 0.000414518
19 *87:21 0.000852273
20 *87:19 0.000331219
21 *87:15 0.000292273
22 *87:6 0.000247002
23 *1346:CLK *1146:A0 0.000185643
24 *1346:CLK *1146:S0 0.00022132
25 *1346:CLK *267:28 6.88294e-06
26 *1349:CLK *107:96 9.90431e-05
27 *1349:CLK *269:16 0
28 *1360:CLK *1137:A1 5.39166e-06
29 *1360:CLK *1302:A0 1.13406e-05
30 *1360:CLK *1360:D 8.95186e-05
31 *1360:CLK *277:30 1.41137e-05
32 *1360:CLK *293:8 4.95055e-05
33 *1386:CLK *1250:S 0
34 *1386:CLK *1386:D 0.000275631
35 *1386:CLK *106:203 0
36 *1386:CLK *106:207 0
37 *1386:CLK *108:68 0
38 *1386:CLK *299:32 0
39 *1424:CLK *1175:A_N 0
40 *1424:CLK *1175:B 5.38239e-05
41 *1424:CLK *1175:C 1.91414e-05
42 *1424:CLK *1187:A 0
43 *1424:CLK *1197:A_N 9.41642e-05
44 *1424:CLK *1197:B 8.41437e-05
45 *1424:CLK *1198:C 9.60939e-05
46 *1424:CLK *1217:A_N 0.000102071
47 *1424:CLK *1256:A 5.81579e-05
48 *1424:CLK *1256:B 0.000301438
49 *1424:CLK *1283:A 0.000126439
50 *1424:CLK *1424:D 2.14757e-05
51 *1424:CLK *104:133 0
52 *1424:CLK *257:30 9.60939e-05
53 *1424:CLK *311:10 6.74911e-05
54 *1424:CLK *311:14 9.12446e-05
55 *1424:CLK *491:57 6.42095e-05
56 *1424:CLK *491:59 6.71854e-05
57 *1424:CLK *492:50 2.21038e-05
58 *1424:CLK *492:54 0.000197991
59 *1432:CLK *1164:A3 0.00031446
60 *1432:CLK *1223:S 7.09054e-05
61 *1432:CLK *1432:D 0.000662197
62 *1432:CLK *107:148 0.000132442
63 *1432:CLK *109:190 0.000182624
64 *1432:CLK *299:14 0.000132442
65 *1435:CLK *1150:S0 0
66 *1435:CLK *1191:A0 0
67 *1435:CLK *1339:D 0
68 *1435:CLK *1435:D 0.000123334
69 *1435:CLK *309:24 0
70 *1435:CLK *389:16 1.07719e-05
71 *1435:CLK *421:12 1.40415e-05
72 *87:6 *1221:A0 0
73 *87:6 *107:96 8.46507e-06
74 *87:15 *1298:A1 0
75 *87:15 *1298:S 0
76 *87:15 *1389:D 0.000185794
77 *87:15 *107:96 1.3916e-05
78 *87:19 *1162:S1 0.000178663
79 *87:19 *1389:D 0.000153769
80 *87:19 *311:14 1.08359e-05
81 *87:21 *1339:D 0
82 *87:21 *1429:D 1.76204e-05
83 *87:21 *107:96 0.000217834
84 *87:21 *269:16 0
85 *87:39 *107:96 5.22045e-05
86 *87:39 *269:16 0
87 *87:43 *1162:S1 0.000249002
88 *87:43 *106:180 0.000192577
89 *87:43 *310:18 0
90 *87:43 *312:26 0.000248938
91 *87:43 *312:32 0.000200413
92 *87:43 *444:282 0.000127324
93 *87:49 *1146:S1 0
94 *87:49 *1159:A2 0
95 *87:49 *1442:D 0.000228869
96 *87:49 *106:180 0.000260495
97 *87:49 *312:32 0.000226021
98 *87:49 *436:10 1.74352e-05
99 *87:49 *444:271 7.80714e-06
100 *87:79 *1162:S1 9.25014e-06
101 *87:79 *1298:A0 8.62503e-05
102 *87:79 *311:14 0.000122717
103 *87:88 *1187:A 0
104 *87:88 *1298:A0 1.87955e-05
105 *87:88 *109:190 0
106 *87:88 *310:12 0
107 *87:88 *311:14 0.00021788
108 *87:92 *1302:A0 3.81416e-06
109 *87:92 *104:118 4.47762e-05
110 *87:92 *293:6 5.88177e-05
111 *87:92 *293:8 7.2832e-05
112 *87:92 *378:14 0.00031119
*RES
1 *1126:X *87:6 11.1812 
2 *87:6 *1389:CLK 9.3 
3 *87:6 *87:15 9.22775 
4 *87:15 *87:19 7.61883 
5 *87:19 *87:21 7.00499 
6 *87:21 *1429:CLK 9.3 
7 *87:21 *1435:CLK 24.3248 
8 *87:19 *87:39 1.31189 
9 *87:39 *87:43 18.1387 
10 *87:43 *87:49 16.604 
11 *87:49 *1386:CLK 18.5822 
12 *87:49 *1442:CLK 9.3 
13 *87:43 *1346:CLK 17.3891 
14 *87:39 *1349:CLK 10.6119 
15 *87:15 *87:79 3.96042 
16 *87:79 *1445:CLK 13.8 
17 *87:79 *87:88 7.32677 
18 *87:88 *87:92 11.505 
19 *87:92 *1360:CLK 14.0525 
20 *87:92 *1432:CLK 33.1021 
21 *87:88 *1424:CLK 31.7951 
*END

*D_NET *88 0.0127707
*CONN
*I *1382:CLK I *D sky130_fd_sc_hd__dfxtp_1
*I *1358:CLK I *D sky130_fd_sc_hd__dfxtp_1
*I *1348:CLK I *D sky130_fd_sc_hd__dfxtp_1
*I *1406:CLK I *D sky130_fd_sc_hd__dfxtp_1
*I *1444:CLK I *D sky130_fd_sc_hd__dfxtp_1
*I *1455:CLK I *D sky130_fd_sc_hd__dfxtp_1
*I *1454:CLK I *D sky130_fd_sc_hd__dfxtp_1
*I *1351:CLK I *D sky130_fd_sc_hd__dfxtp_1
*I *1385:CLK I *D sky130_fd_sc_hd__dfxtp_1
*I *1447:CLK I *D sky130_fd_sc_hd__dfxtp_1
*I *1425:CLK I *D sky130_fd_sc_hd__dfxtp_1
*I *1345:CLK I *D sky130_fd_sc_hd__dfxtp_1
*I *1441:CLK I *D sky130_fd_sc_hd__dfxtp_1
*I *1127:X O *D sky130_fd_sc_hd__clkbuf_8
*CAP
1 *1382:CLK 5.32599e-05
2 *1358:CLK 9.88761e-05
3 *1348:CLK 8.98251e-05
4 *1406:CLK 9.90568e-05
5 *1444:CLK 0.000125253
6 *1455:CLK 0.000358866
7 *1454:CLK 0
8 *1351:CLK 0.000336758
9 *1385:CLK 4.19266e-05
10 *1447:CLK 0.000213257
11 *1425:CLK 0
12 *1345:CLK 0.000128602
13 *1441:CLK 0.00025118
14 *1127:X 0
15 *88:121 0.000188882
16 *88:112 0.000392327
17 *88:110 0.000589544
18 *88:32 0.000466293
19 *88:28 0.000252939
20 *88:24 0.00046226
21 *88:22 0.00021684
22 *88:20 0.000470932
23 *88:16 0.000146595
24 *88:12 0.000623233
25 *88:8 0.000396183
26 *88:4 6.62399e-05
27 *1345:CLK *1425:D 9.31893e-05
28 *1345:CLK *1441:D 0
29 *1345:CLK *312:77 0.000331712
30 *1348:CLK *1157:S1 0.000126203
31 *1348:CLK *1444:D 2.41224e-05
32 *1348:CLK *261:24 1.58163e-05
33 *1348:CLK *296:62 5.33005e-05
34 *1348:CLK *443:92 0.000124873
35 *1351:CLK *1294:S 8.50774e-05
36 *1351:CLK *1318:A0 1.96078e-05
37 *1351:CLK *1351:D 0.000141981
38 *1351:CLK *110:36 5.33005e-05
39 *1351:CLK *111:66 0.000312215
40 *1351:CLK *444:127 0.000207766
41 *1358:CLK *1144:A2 0
42 *1358:CLK *1272:S 0.000182694
43 *1358:CLK *1358:D 5.52302e-05
44 *1358:CLK *110:20 0.000186662
45 *1358:CLK *110:26 8.66063e-05
46 *1358:CLK *261:24 0
47 *1382:CLK *1169:A0 0.000122159
48 *1382:CLK *1174:A0 0.000232399
49 *1382:CLK *288:18 0
50 *1385:CLK *1294:S 1.57931e-05
51 *1385:CLK *114:60 0.000142856
52 *1406:CLK *1144:A2 3.77662e-05
53 *1406:CLK *1444:D 9.69119e-06
54 *1406:CLK *105:58 2.89114e-05
55 *1406:CLK *296:32 0
56 *1406:CLK *443:92 9.66673e-05
57 *1441:CLK *1425:D 3.14147e-05
58 *1444:CLK *1157:S1 6.09889e-05
59 *1444:CLK *1444:D 1.64343e-05
60 *1444:CLK *105:58 2.57838e-05
61 *1444:CLK *261:24 0
62 *1447:CLK *1206:A1 1.00073e-05
63 *1447:CLK *1249:S 0.000202075
64 *1447:CLK *1447:D 8.52807e-05
65 *1447:CLK *105:58 5.33005e-05
66 *1447:CLK *114:74 2.87555e-06
67 *1447:CLK *441:10 0.000318101
68 *1447:CLK *444:137 0.000261472
69 *1455:CLK *1294:A1 0.000196066
70 *1455:CLK *1326:A1 0.000128342
71 *1455:CLK *1326:S 3.80953e-06
72 *1455:CLK *111:47 0.000168888
73 *1455:CLK *114:47 1.57931e-05
74 *88:8 *1169:A0 5.52302e-05
75 *88:8 *1174:A0 2.14757e-05
76 *88:12 *1200:S 0
77 *88:12 *110:30 0.000274394
78 *88:16 *1454:D 8.42801e-05
79 *88:16 *110:36 8.62995e-06
80 *88:16 *111:47 8.02593e-05
81 *88:16 *444:127 0
82 *88:20 *1454:D 0.000130583
83 *88:20 *105:58 0.000144512
84 *88:20 *110:30 0
85 *88:22 *1425:D 0
86 *88:22 *1454:D 7.90803e-05
87 *88:22 *105:58 0.000215049
88 *88:22 *444:127 0
89 *88:24 *1385:D 0
90 *88:24 *1425:D 0
91 *88:24 *105:58 0.000168698
92 *88:28 *1206:A1 0
93 *88:28 *1385:D 0
94 *88:28 *1425:D 0
95 *88:28 *105:58 3.17148e-05
96 *88:32 *1425:D 8.2899e-05
97 *88:32 *312:77 9.24825e-05
98 *88:110 *1166:A3 0.000104974
99 *88:110 *1200:S 0
100 *88:110 *1272:A0 7.46814e-05
101 *88:110 *110:26 0.000153762
102 *88:110 *110:30 0.000361133
103 *88:110 *445:154 0
104 *88:112 *1144:A2 0
105 *88:112 *1406:D 0
106 *88:112 *105:58 3.00139e-05
107 *88:112 *110:26 5.33005e-05
108 *88:112 *261:24 0
109 *88:112 *438:10 8.71847e-05
*RES
1 *1127:X *88:4 9.3 
2 *88:4 *88:8 5.24258 
3 *88:8 *88:12 9.302 
4 *88:12 *88:16 3.61388 
5 *88:16 *88:20 7.19803 
6 *88:20 *88:22 3.96042 
7 *88:22 *88:24 3.11883 
8 *88:24 *88:28 8.46042 
9 *88:28 *88:32 3.61388 
10 *88:32 *1441:CLK 24.6119 
11 *88:32 *1345:CLK 15.7357 
12 *88:28 *1425:CLK 9.3 
13 *88:24 *1447:CLK 23.6763 
14 *88:22 *1385:CLK 15.6812 
15 *88:20 *1351:CLK 25.9535 
16 *88:16 *1454:CLK 9.3 
17 *88:12 *1455:CLK 22.5921 
18 *88:8 *88:110 13.9307 
19 *88:110 *88:112 7.5743 
20 *88:112 *1444:CLK 12.8891 
21 *88:112 *88:121 4.5 
22 *88:121 *1406:CLK 17.6614 
23 *88:121 *1348:CLK 18.503 
24 *88:110 *1358:CLK 14.0277 
25 *88:4 *1382:CLK 12.9139 
*END

*D_NET *89 0.0097588
*CONN
*I *1353:CLK I *D sky130_fd_sc_hd__dfxtp_1
*I *1377:CLK I *D sky130_fd_sc_hd__dfxtp_1
*I *1404:CLK I *D sky130_fd_sc_hd__dfxtp_1
*I *1452:CLK I *D sky130_fd_sc_hd__dfxtp_1
*I *1383:CLK I *D sky130_fd_sc_hd__dfxtp_1
*I *1407:CLK I *D sky130_fd_sc_hd__dfxtp_1
*I *1359:CLK I *D sky130_fd_sc_hd__dfxtp_1
*I *1449:CLK I *D sky130_fd_sc_hd__dfxtp_1
*I *1401:CLK I *D sky130_fd_sc_hd__dfxtp_1
*I *1128:X O *D sky130_fd_sc_hd__clkbuf_8
*CAP
1 *1353:CLK 0
2 *1377:CLK 0.000101188
3 *1404:CLK 0.000140525
4 *1452:CLK 0
5 *1383:CLK 0
6 *1407:CLK 0.00025216
7 *1359:CLK 3.57631e-05
8 *1449:CLK 9.02946e-05
9 *1401:CLK 0.000276101
10 *1128:X 0
11 *89:105 0.000379623
12 *89:83 0.000372717
13 *89:55 0.00025216
14 *89:20 0.000587171
15 *89:14 0.000392846
16 *89:12 0.000371407
17 *89:6 0.000480069
18 *89:4 0.000291214
19 *1359:CLK *1321:S 0.000140933
20 *1359:CLK *444:92 5.06983e-05
21 *1377:CLK *1216:S 2.89114e-05
22 *1377:CLK *100:42 5.71472e-05
23 *1377:CLK *264:16 0.00018037
24 *1377:CLK *303:55 0
25 *1401:CLK *1143:S1 0
26 *1401:CLK *1245:A1 7.40249e-05
27 *1401:CLK *1321:A0 0
28 *1401:CLK *1321:A1 7.03295e-05
29 *1401:CLK *1321:S 0.000534229
30 *1401:CLK *1449:D 0
31 *1401:CLK *264:16 0
32 *1401:CLK *303:51 0
33 *1401:CLK *395:12 6.78055e-06
34 *1404:CLK *1173:S0 0
35 *1404:CLK *1324:A1 0
36 *1404:CLK *1452:D 0
37 *1404:CLK *108:32 0
38 *1404:CLK *108:40 0
39 *1404:CLK *111:18 0.000112823
40 *1407:CLK *1166:S0 0
41 *1407:CLK *1327:A1 0.000121015
42 *1407:CLK *1407:D 0.000233742
43 *1407:CLK *1455:D 8.48705e-05
44 *1407:CLK *100:20 0.000283964
45 *1407:CLK *111:47 0.000136028
46 *1407:CLK *114:47 7.09054e-05
47 *1407:CLK *263:14 0.000176234
48 *1407:CLK *288:18 4.64967e-05
49 *1449:CLK *303:51 0.000186078
50 *89:6 *1094:A0 2.14757e-05
51 *89:6 *1216:A0 1.32552e-05
52 *89:12 *1094:A0 0.000203228
53 *89:12 *1216:A0 1.40415e-05
54 *89:12 *1327:A1 3.17148e-05
55 *89:12 *1407:D 0
56 *89:12 *111:35 9.35866e-05
57 *89:12 *313:64 5.4447e-05
58 *89:14 *1326:S 7.79781e-06
59 *89:14 *1327:A1 0.000215063
60 *89:14 *1383:D 1.46717e-05
61 *89:14 *313:64 4.1331e-06
62 *89:14 *313:66 0.000126601
63 *89:14 *401:10 0.000107404
64 *89:20 *1245:A0 0
65 *89:20 *1321:S 0
66 *89:20 *1326:S 5.89643e-05
67 *89:20 *1383:D 0.000159915
68 *89:20 *303:40 0.000534222
69 *89:20 *303:51 9.90431e-05
70 *89:20 *444:92 9.78079e-05
71 *89:83 *1173:S0 0
72 *89:83 *111:18 0.000139683
73 *89:83 *111:20 0.00022845
74 *89:83 *307:63 0
75 *89:105 *1094:A0 0.00083502
76 *89:105 *1216:A0 4.98592e-05
77 *89:105 *1216:A1 0
78 *89:105 *1216:S 8.46044e-06
79 *89:105 *100:20 0
80 *1127:A *89:12 2.11362e-05
*RES
1 *1128:X *89:4 9.3 
2 *89:4 *89:6 0.742578 
3 *89:6 *89:12 12.9159 
4 *89:12 *89:14 6.48518 
5 *89:14 *89:20 15.7624 
6 *89:20 *1401:CLK 30.4535 
7 *89:20 *1449:CLK 13.3347 
8 *89:14 *1359:CLK 15.6812 
9 *89:12 *89:55 4.5 
10 *89:55 *1407:CLK 31.0723 
11 *89:55 *1383:CLK 9.3 
12 *89:6 *89:83 11.8268 
13 *89:83 *1452:CLK 13.8 
14 *89:83 *1404:CLK 18.6515 
15 *89:4 *89:105 11.5842 
16 *89:105 *1377:CLK 22.1614 
17 *89:105 *1353:CLK 9.3 
*END

*D_NET *90 0.00815618
*CONN
*I *1347:CLK I *D sky130_fd_sc_hd__dfxtp_1
*I *1427:CLK I *D sky130_fd_sc_hd__dfxtp_1
*I *1384:CLK I *D sky130_fd_sc_hd__dfxtp_1
*I *1440:CLK I *D sky130_fd_sc_hd__dfxtp_1
*I *1387:CLK I *D sky130_fd_sc_hd__dfxtp_1
*I *1443:CLK I *D sky130_fd_sc_hd__dfxtp_1
*I *1450:CLK I *D sky130_fd_sc_hd__dfxtp_1
*I *1402:CLK I *D sky130_fd_sc_hd__dfxtp_1
*I *1129:X O *D sky130_fd_sc_hd__clkbuf_8
*CAP
1 *1347:CLK 0.000156155
2 *1427:CLK 2.23854e-05
3 *1384:CLK 6.21346e-05
4 *1440:CLK 7.34636e-05
5 *1387:CLK 0
6 *1443:CLK 1.55603e-05
7 *1450:CLK 2.69437e-05
8 *1402:CLK 0.000148491
9 *1129:X 0.000154499
10 *90:66 0.000500502
11 *90:57 0.000443714
12 *90:51 0.000305339
13 *90:47 0.000496302
14 *90:34 0.000424655
15 *90:23 0.000450735
16 *90:10 0.00045369
17 *1347:CLK *1153:A2 0
18 *1347:CLK *96:16 3.09386e-05
19 *1347:CLK *341:10 4.01768e-05
20 *1384:CLK *1217:B 9.3242e-05
21 *1384:CLK *104:104 0.000117903
22 *1384:CLK *292:10 1.14734e-05
23 *1384:CLK *296:10 6.8646e-06
24 *1384:CLK *297:8 5.93245e-05
25 *1402:CLK *1268:A1 0
26 *1402:CLK *1322:A1 6.22185e-05
27 *1402:CLK *106:165 0
28 *1402:CLK *307:34 0.00037467
29 *1440:CLK *1217:B 5.52302e-05
30 *1440:CLK *1319:A_N 5.71472e-05
31 *1440:CLK *1319:B 0.000156117
32 *1440:CLK *259:16 0.000137515
33 *1440:CLK *292:33 2.14757e-05
34 *1440:CLK *307:20 1.85808e-05
35 *1443:CLK *96:16 1.92905e-05
36 *1443:CLK *268:22 5.52302e-05
37 *1450:CLK *106:165 1.92789e-05
38 *90:10 *1162:S0 9.90431e-05
39 *90:10 *106:165 5.39629e-06
40 *90:10 *307:34 0.000196021
41 *90:10 *444:520 0
42 *90:23 *1450:D 0.000319444
43 *90:23 *98:16 0
44 *90:23 *106:165 0.000191699
45 *90:23 *268:22 9.41642e-05
46 *90:34 *110:16 0
47 *90:34 *445:150 0
48 *90:47 *1443:D 0
49 *90:47 *296:20 0
50 *90:51 *1251:S 0.000135836
51 *90:51 *1427:D 0.000147136
52 *90:51 *96:16 0
53 *90:51 *305:16 4.0342e-06
54 *90:51 *445:150 0
55 *90:57 *1316:A0 4.46186e-06
56 *90:57 *296:20 3.69865e-05
57 *90:57 *305:12 5.83304e-05
58 *90:57 *305:16 1.40415e-05
59 *90:57 *445:137 5.61284e-05
60 *90:57 *445:150 0
61 *90:66 *1316:A0 0.000207272
62 *90:66 *1349:D 3.60533e-05
63 *90:66 *104:104 0.000222878
64 *90:66 *296:10 8.45293e-05
65 *90:66 *305:12 0.000956718
66 *90:66 *312:16 0
67 *90:66 *439:10 9.66577e-05
68 *90:66 *443:68 0.000118105
69 *68:22 *90:34 0
70 *68:28 *90:34 0
*RES
1 *1129:X *90:10 18.6515 
2 *90:10 *1402:CLK 20.2852 
3 *90:10 *90:23 11.505 
4 *90:23 *1450:CLK 10.0426 
5 *90:23 *90:34 11.406 
6 *90:34 *1443:CLK 14.5426 
7 *90:34 *90:47 8.03962 
8 *90:47 *90:51 7.45053 
9 *90:51 *90:57 7.94061 
10 *90:57 *1387:CLK 13.8 
11 *90:57 *90:66 20.7922 
12 *90:66 *1440:CLK 17.9584 
13 *90:66 *1384:CLK 16.9188 
14 *90:51 *1427:CLK 9.89406 
15 *90:47 *1347:CLK 13.4584 
*END

*D_NET *91 0.0118287
*CONN
*I *1379:CLK I *D sky130_fd_sc_hd__dfxtp_1
*I *1381:CLK I *D sky130_fd_sc_hd__dfxtp_1
*I *1355:CLK I *D sky130_fd_sc_hd__dfxtp_1
*I *1403:CLK I *D sky130_fd_sc_hd__dfxtp_1
*I *1451:CLK I *D sky130_fd_sc_hd__dfxtp_1
*I *1354:CLK I *D sky130_fd_sc_hd__dfxtp_1
*I *1356:CLK I *D sky130_fd_sc_hd__dfxtp_1
*I *1380:CLK I *D sky130_fd_sc_hd__dfxtp_1
*I *1378:CLK I *D sky130_fd_sc_hd__dfxtp_1
*I *1130:X O *D sky130_fd_sc_hd__clkbuf_8
*CAP
1 *1379:CLK 0.000412015
2 *1381:CLK 0.000443052
3 *1355:CLK 0
4 *1403:CLK 2.67314e-05
5 *1451:CLK 1.26877e-05
6 *1354:CLK 0.000347815
7 *1356:CLK 0
8 *1380:CLK 0.000457471
9 *1378:CLK 0.000541163
10 *1130:X 0
11 *91:94 0.000553218
12 *91:90 0.000615572
13 *91:75 0.000183526
14 *91:64 0.000249002
15 *91:23 0.00047596
16 *91:21 0.00050911
17 *91:19 0.000342766
18 *91:4 0.00056821
19 *1354:CLK *1148:A0 2.07822e-05
20 *1354:CLK *1211:A1 1.42064e-05
21 *1354:CLK *1211:S 0
22 *1354:CLK *1354:D 0.000444991
23 *1354:CLK *98:16 0.000211051
24 *1354:CLK *106:123 0.000276211
25 *1354:CLK *114:226 0
26 *1354:CLK *268:22 4.30382e-05
27 *1378:CLK *1162:S0 1.05731e-05
28 *1378:CLK *1378:D 1.64343e-05
29 *1378:CLK *1451:D 2.30263e-05
30 *1378:CLK *96:16 0
31 *1378:CLK *114:226 0
32 *1378:CLK *114:242 0.000563309
33 *1378:CLK *303:26 0
34 *1378:CLK *372:8 8.68626e-05
35 *1378:CLK *444:520 0
36 *1379:CLK *1151:A1 7.32272e-05
37 *1379:CLK *1323:A1 0.000147347
38 *1379:CLK *1379:D 0.000139907
39 *1379:CLK *97:12 0
40 *1379:CLK *107:50 5.09744e-05
41 *1379:CLK *270:24 1.92789e-05
42 *1379:CLK *317:10 0
43 *1379:CLK *373:6 3.97677e-05
44 *1379:CLK *397:12 0.000129913
45 *1379:CLK *405:10 5.94896e-06
46 *1380:CLK *1158:S0 1.08359e-05
47 *1380:CLK *1159:A0 3.1936e-05
48 *1380:CLK *1213:A1 0
49 *1380:CLK *1324:A1 0.000157732
50 *1380:CLK *1356:D 0
51 *1380:CLK *1380:D 0.000142856
52 *1380:CLK *108:32 0.000260502
53 *1380:CLK *108:40 0
54 *1380:CLK *111:18 0
55 *1380:CLK *114:26 2.88018e-06
56 *1380:CLK *276:16 0.000265924
57 *1380:CLK *313:37 0.000177955
58 *1381:CLK *1092:A0 0.000691798
59 *1381:CLK *1163:A1 0.000103981
60 *1381:CLK *1202:S 3.69047e-06
61 *1381:CLK *1243:A1 1.65169e-05
62 *1381:CLK *1381:D 1.64343e-05
63 *1381:CLK *1403:D 5.11571e-05
64 *1381:CLK *99:14 1.04232e-05
65 *1381:CLK *107:14 0
66 *1381:CLK *107:18 0
67 *1381:CLK *298:38 0
68 *1381:CLK *298:72 9.0145e-05
69 *1381:CLK *307:109 0
70 *1381:CLK *313:29 0.000170055
71 *1381:CLK *407:8 2.15245e-05
72 *1403:CLK *96:16 5.39629e-06
73 *1451:CLK *1451:D 5.71472e-05
74 *1451:CLK *96:16 2.14083e-05
75 *91:19 *114:226 0
76 *91:21 *1270:A1 5.67912e-05
77 *91:21 *108:32 2.24541e-05
78 *91:21 *114:18 0
79 *91:21 *114:26 0
80 *91:21 *313:37 0.000193664
81 *91:23 *108:32 5.58941e-05
82 *91:23 *313:37 4.56437e-05
83 *91:64 *1451:D 7.1933e-05
84 *91:64 *96:16 6.62983e-05
85 *91:64 *114:18 0
86 *91:64 *313:37 9.31567e-05
87 *91:75 *111:18 0.000115373
88 *91:75 *313:37 0.00011077
89 *91:90 *1323:A1 9.90431e-05
90 *91:90 *1323:S 2.89114e-05
91 *91:90 *107:50 1.74795e-05
92 *91:90 *107:52 5.52302e-05
93 *91:90 *111:18 9.87201e-05
94 *91:90 *313:37 9.99246e-05
95 *91:94 *1403:D 9.27779e-05
96 *91:94 *313:29 0.000109819
97 *91:94 *313:37 2.94103e-05
*RES
1 *1130:X *91:4 9.3 
2 *91:4 *1378:CLK 25.8842 
3 *91:4 *91:19 5.24258 
4 *91:19 *91:21 6.06439 
5 *91:21 *91:23 1.01486 
6 *91:23 *1380:CLK 30.0872 
7 *91:23 *1356:CLK 13.8 
8 *91:21 *1354:CLK 28.2308 
9 *91:19 *91:64 10.6634 
10 *91:64 *1451:CLK 10.0426 
11 *91:64 *91:75 8.03962 
12 *91:75 *1403:CLK 14.5426 
13 *91:75 *91:90 10.0693 
14 *91:90 *91:94 8.88121 
15 *91:94 *1355:CLK 13.8 
16 *91:94 *1381:CLK 31.0031 
17 *91:90 *1379:CLK 21.6268 
*END

*D_NET *92 0.0121699
*CONN
*I *1369:CLK I *D sky130_fd_sc_hd__dfxtp_1
*I *1411:CLK I *D sky130_fd_sc_hd__dfxtp_1
*I *1399:CLK I *D sky130_fd_sc_hd__dfxtp_1
*I *1332:CLK I *D sky130_fd_sc_hd__dfxtp_1
*I *1330:CLK I *D sky130_fd_sc_hd__dfxtp_1
*I *1412:CLK I *D sky130_fd_sc_hd__dfxtp_1
*I *1372:CLK I *D sky130_fd_sc_hd__dfxtp_1
*I *1396:CLK I *D sky130_fd_sc_hd__dfxtp_1
*I *1371:CLK I *D sky130_fd_sc_hd__dfxtp_1
*I *1335:CLK I *D sky130_fd_sc_hd__dfxtp_1
*I *1415:CLK I *D sky130_fd_sc_hd__dfxtp_1
*I *1375:CLK I *D sky130_fd_sc_hd__dfxtp_1
*I *1374:CLK I *D sky130_fd_sc_hd__dfxtp_1
*I *1398:CLK I *D sky130_fd_sc_hd__dfxtp_1
*I *1131:X O *D sky130_fd_sc_hd__clkbuf_8
*CAP
1 *1369:CLK 0.00016689
2 *1411:CLK 0
3 *1399:CLK 2.23854e-05
4 *1332:CLK 0
5 *1330:CLK 0.000251275
6 *1412:CLK 0
7 *1372:CLK 0.000151139
8 *1396:CLK 0
9 *1371:CLK 0.000305489
10 *1335:CLK 0
11 *1415:CLK 0.000107612
12 *1375:CLK 0
13 *1374:CLK 0.000145527
14 *1398:CLK 7.65113e-05
15 *1131:X 0.000246868
16 *92:101 0.000466686
17 *92:97 0.000664157
18 *92:76 0.000612738
19 *92:61 0.000551048
20 *92:54 0.000136187
21 *92:34 0.000411797
22 *92:32 0.000364407
23 *92:28 0.000322963
24 *92:26 0.000446434
25 *92:24 0.000375814
26 *92:16 0.000617614
27 *92:10 0.000454354
28 *92:8 0.000447911
29 *1330:CLK *1279:A1 0.000190914
30 *1330:CLK *1396:D 0
31 *1330:CLK *108:223 0.000357054
32 *1330:CLK *366:10 0
33 *1330:CLK *444:336 0
34 *1369:CLK *1369:D 1.64343e-05
35 *1369:CLK *104:157 0.000195014
36 *1369:CLK *108:194 0
37 *1369:CLK *306:31 0.000103247
38 *1369:CLK *306:37 5.52238e-05
39 *1371:CLK *1170:A0 3.06878e-06
40 *1371:CLK *1170:A1 0
41 *1371:CLK *1170:A2 1.35046e-05
42 *1371:CLK *1335:D 0.00035441
43 *1371:CLK *1399:D 0
44 *1371:CLK *444:314 0
45 *1371:CLK *444:397 6.05161e-06
46 *1372:CLK *1372:D 0
47 *1372:CLK *1412:D 0
48 *1374:CLK *1234:A0 0
49 *1374:CLK *1234:S 9.71197e-05
50 *1374:CLK *1374:D 0.00013001
51 *1374:CLK *110:241 8.27184e-06
52 *1398:CLK *1234:S 8.15939e-05
53 *1398:CLK *1281:S 6.26466e-05
54 *1415:CLK *1235:A1 5.52302e-05
55 *1415:CLK *301:62 0.000177941
56 *1415:CLK *308:16 0
57 *1415:CLK *361:10 0
58 *92:8 *212:14 0
59 *92:8 *306:31 0
60 *92:8 *355:10 0
61 *92:10 *104:157 0.000174257
62 *92:16 *1264:A0 8.46044e-06
63 *92:16 *1332:D 0
64 *92:16 *1399:D 0.000270477
65 *92:16 *104:157 0.000182799
66 *92:16 *257:10 0
67 *92:16 *326:12 0
68 *92:24 *1279:A0 0
69 *92:24 *1332:D 0
70 *92:24 *277:10 5.98882e-05
71 *92:26 *1155:A3 0
72 *92:26 *1396:D 0.000258011
73 *92:26 *334:14 3.67142e-05
74 *92:26 *444:328 0
75 *92:28 *1396:D 0.000143911
76 *92:28 *301:62 1.79387e-05
77 *92:32 *1412:D 0.000133005
78 *92:32 *308:31 8.22029e-05
79 *92:32 *308:46 2.59795e-05
80 *92:34 *1281:S 2.19778e-05
81 *92:34 *308:31 0.000135113
82 *92:61 *1235:A0 1.23747e-05
83 *92:61 *1279:S 0
84 *92:61 *1375:D 0.000127163
85 *92:76 *1170:A2 2.92634e-05
86 *92:76 *1235:A0 4.46608e-05
87 *92:76 *1279:S 0
88 *92:97 *1279:A0 0.000130436
89 *92:97 *1279:A1 0.000402707
90 *92:97 *366:10 6.7257e-05
91 *92:97 *444:336 0
92 *92:101 *1155:A2 9.33978e-07
93 *92:101 *1232:A0 7.07155e-06
94 *92:101 *1372:D 0
95 *92:101 *1412:D 0.000275625
96 *68:164 *1369:CLK 1.76135e-05
97 *68:164 *92:10 0.000102221
98 *68:164 *92:16 5.51671e-05
99 *68:179 *1369:CLK 9.31567e-05
*RES
1 *1131:X *92:8 19.6664 
2 *92:8 *92:10 3.11883 
3 *92:10 *92:16 18.609 
4 *92:16 *92:24 15.8565 
5 *92:24 *92:26 6.43568 
6 *92:26 *92:28 3.58913 
7 *92:28 *92:32 11.406 
8 *92:32 *92:34 6.90598 
9 *92:34 *1398:CLK 16.9188 
10 *92:34 *1374:CLK 18.5277 
11 *92:32 *92:54 4.5 
12 *92:54 *1375:CLK 9.3 
13 *92:54 *92:61 3.58913 
14 *92:61 *1415:CLK 22.1614 
15 *92:61 *92:76 8.71292 
16 *92:76 *1335:CLK 9.3 
17 *92:76 *1371:CLK 18.5822 
18 *92:28 *1396:CLK 9.3 
19 *92:26 *92:97 11.406 
20 *92:97 *92:101 12.6436 
21 *92:101 *1372:CLK 22.1614 
22 *92:101 *1412:CLK 9.3 
23 *92:97 *1330:CLK 22.9832 
24 *92:24 *1332:CLK 9.3 
25 *92:16 *1399:CLK 9.89406 
26 *92:10 *1411:CLK 13.8 
27 *92:8 *1369:CLK 20.9287 
*END

*D_NET *93 0.00968207
*CONN
*I *1678:CLK I *D sky130_fd_sc_hd__dfrtp_1
*I *1659:CLK I *D sky130_fd_sc_hd__dfrtp_1
*I *1675:CLK I *D sky130_fd_sc_hd__dfrtp_1
*I *1662:CLK I *D sky130_fd_sc_hd__dfrtp_1
*I *1671:CLK I *D sky130_fd_sc_hd__dfrtp_1
*I *1651:CLK I *D sky130_fd_sc_hd__dfrtp_1
*I *1344:CLK I *D sky130_fd_sc_hd__dfxtp_1
*I *1667:CLK I *D sky130_fd_sc_hd__dfrtp_1
*I *1395:CLK I *D sky130_fd_sc_hd__dfxtp_1
*I *1687:CLK I *D sky130_fd_sc_hd__dfrtp_1
*I *1331:CLK I *D sky130_fd_sc_hd__dfxtp_1
*I *1132:X O *D sky130_fd_sc_hd__clkbuf_8
*CAP
1 *1678:CLK 2.23854e-05
2 *1659:CLK 0.000312965
3 *1675:CLK 0
4 *1662:CLK 0
5 *1671:CLK 0
6 *1651:CLK 7.16461e-05
7 *1344:CLK 0.000285394
8 *1667:CLK 2.23854e-05
9 *1395:CLK 0.000561401
10 *1687:CLK 0
11 *1331:CLK 0.000488838
12 *1132:X 3.54436e-05
13 *93:110 0.00045374
14 *93:72 0.000546517
15 *93:68 0.000375969
16 *93:64 0.000208879
17 *93:62 0.00056889
18 *93:42 0.000681014
19 *93:38 0.000502957
20 *93:16 0.000683228
21 *93:14 0.000337765
22 *93:6 0.000201204
23 *1331:CLK *1152:A2 3.55552e-05
24 *1331:CLK *1152:S1 9.75849e-06
25 *1331:CLK *1170:S0 3.63587e-05
26 *1331:CLK *1231:A1 8.25843e-06
27 *1331:CLK *1278:A0 0.00061788
28 *1331:CLK *1278:A1 0.000399841
29 *1331:CLK *1278:S 1.74352e-05
30 *1331:CLK *1331:D 1.64343e-05
31 *1331:CLK *107:165 0.000109255
32 *1331:CLK *111:191 0
33 *1331:CLK *271:16 0
34 *1344:CLK *1651:D 5.66157e-05
35 *1344:CLK *110:14 0
36 *1344:CLK *110:16 0
37 *1344:CLK *110:216 0.000108589
38 *1344:CLK *491:57 0
39 *1395:CLK *1395:D 0.000351454
40 *1395:CLK *212:14 0
41 *1395:CLK *271:16 0
42 *1651:CLK *1651:D 2.59355e-05
43 *1651:CLK *110:216 7.43578e-06
44 *1651:CLK *111:191 9.60771e-05
45 *1651:CLK *493:40 0
46 *1659:CLK *1579:B2 0
47 *1659:CLK *1638:S 6.8023e-05
48 *1659:CLK *1662:D 0.000134719
49 *1659:CLK *108:194 0
50 *1659:CLK *580:183 0
51 *1659:CLK *581:97 0
52 *93:14 *1678:D 0
53 *93:42 *1667:D 7.77652e-05
54 *93:42 *271:16 0
55 *93:62 *1591:B2 2.65105e-05
56 *93:62 *1667:D 0.000169864
57 *93:62 *271:16 0
58 *93:62 *643:8 7.85933e-05
59 *93:62 *653:8 0
60 *93:68 *1591:B2 0
61 *93:68 *1595:A1 0.000129868
62 *93:68 *1597:C 8.04913e-05
63 *93:68 *1638:A1 6.21279e-05
64 *93:68 *1651:D 0
65 *93:68 *1671:D 3.88799e-05
66 *93:72 *1651:D 0
67 *93:72 *110:14 1.02504e-05
68 *93:72 *111:191 0
69 *93:110 *1591:B2 9.00795e-06
70 *93:110 *1595:A1 1.40415e-05
71 *93:110 *1597:A 0
72 *93:110 *1629:A1 0
73 *93:110 *1638:A1 0
74 *93:110 *1638:S 4.1331e-06
75 *93:110 *1662:D 0.000177085
76 *1613:A0 *1659:CLK 1.58213e-06
77 *1667:RESET_B *93:62 9.23695e-05
78 *1678:RESET_B *93:62 1.20135e-05
79 *2:120 *93:68 2.04825e-05
80 *2:134 *93:62 0.000216755
81 *36:5 *1659:CLK 0
*RES
1 *1132:X *93:6 11.1812 
2 *93:6 *93:14 9.54953 
3 *93:14 *93:16 4.38121 
4 *93:16 *1331:CLK 32.4882 
5 *93:16 *1687:CLK 13.8 
6 *93:14 *93:38 4.5 
7 *93:38 *93:42 4.18319 
8 *93:42 *1395:CLK 23.7308 
9 *93:42 *1667:CLK 9.89406 
10 *93:38 *93:62 13.8615 
11 *93:62 *93:64 0.594062 
12 *93:64 *93:68 11.406 
13 *93:68 *93:72 4.85151 
14 *93:72 *1344:CLK 21.4486 
15 *93:72 *1651:CLK 16.2505 
16 *93:68 *1671:CLK 13.8 
17 *93:64 *1662:CLK 9.3 
18 *93:62 *93:110 8.93072 
19 *93:110 *1675:CLK 13.8 
20 *93:110 *1659:CLK 23.305 
21 *93:6 *1678:CLK 9.89406 
*END

*D_NET *94 0.00604354
*CONN
*I *1087:A0 I *D sky130_fd_sc_hd__mux2_1
*I *1139:X O *D sky130_fd_sc_hd__mux4_2
*CAP
1 *1087:A0 0
2 *1139:X 0.000828972
3 *94:28 0.0010936
4 *94:18 0.00192258
5 *94:18 *1238:A1 1.41029e-05
6 *94:18 *1238:S 5.41794e-05
7 *94:18 *104:55 1.00375e-05
8 *94:18 *106:115 0
9 *94:18 *108:10 0
10 *94:18 *442:74 5.96243e-05
11 *94:18 *443:30 0.0004618
12 *94:18 *445:60 9.06586e-05
13 *94:28 *1087:A1 0.000143578
14 *94:28 *1376:D 0.000253217
15 *94:28 *1540:D 0.000205013
16 *94:28 *1700:A0 6.78055e-06
17 *94:28 *1702:A0 1.76039e-05
18 *94:28 *104:24 0
19 *94:28 *105:16 0
20 *94:28 *314:10 8.80545e-05
21 *94:28 *445:60 0.000332323
22 *94:28 *491:28 0.000388336
23 *94:28 *513:8 7.79781e-06
24 *1092:S *94:28 0
25 *1099:D *94:28 0
26 *1540:RESET_B *94:28 0
27 *1541:RESET_B *94:28 0
28 *67:94 *94:28 0
29 *81:20 *94:18 4.4138e-05
30 *81:69 *94:18 2.11419e-05
*RES
1 *1139:X *94:18 31.0855 
2 *94:18 *94:28 47.5398 
3 *94:28 *1087:A0 9.3 
*END

*D_NET *95 0.00387943
*CONN
*I *1088:A0 I *D sky130_fd_sc_hd__mux2_1
*I *1144:X O *D sky130_fd_sc_hd__mux4_2
*CAP
1 *1088:A0 0
2 *1144:X 0.000983228
3 *95:10 0.000983228
4 *95:10 *1144:A0 0.00109174
5 *95:10 *1267:S 6.79057e-05
6 *95:10 *307:63 0.00013518
7 *95:10 *398:12 0
8 *1100:CLK *95:10 0.000193631
9 *1100:D *95:10 2.34001e-05
10 *1100:RESET_B *95:10 0.000309121
11 *1105:CLK *95:10 5.39629e-06
12 *1105:D *95:10 0
13 *1767:RESET_B *95:10 8.66063e-05
*RES
1 *1144:X *95:10 44.6715 
2 *95:10 *1088:A0 9.3 
*END

*D_NET *96 0.00490412
*CONN
*I *1089:A0 I *D sky130_fd_sc_hd__mux2_1
*I *1149:X O *D sky130_fd_sc_hd__mux4_2
*CAP
1 *1089:A0 0.000552825
2 *1149:X 0.00124247
3 *96:16 0.0017953
4 *1089:A0 *1212:A0 0
5 *1089:A0 *1241:A0 5.52302e-05
6 *1089:A0 *1241:A1 5.71472e-05
7 *1089:A0 *1241:S 0.000186662
8 *1089:A0 *1379:D 7.84272e-05
9 *1089:A0 *107:24 0
10 *1089:A0 *298:78 0
11 *96:16 *1162:S0 0
12 *96:16 *1240:A1 4.53889e-05
13 *96:16 *1347:D 0
14 *96:16 *1378:D 2.72967e-05
15 *96:16 *1403:D 0
16 *96:16 *1427:D 0
17 *96:16 *1443:D 1.53273e-05
18 *96:16 *1451:D 2.61099e-05
19 *96:16 *107:24 0
20 *96:16 *114:242 0
21 *96:16 *268:22 0.00012776
22 *96:16 *303:26 0.000357048
23 *96:16 *429:12 6.78055e-06
24 *96:16 *437:10 9.80173e-05
25 *1101:D *1089:A0 5.33433e-05
26 *1103:CLK *1089:A0 0
27 *1347:CLK *96:16 3.09386e-05
28 *1378:CLK *96:16 0
29 *1403:CLK *96:16 5.39629e-06
30 *1443:CLK *96:16 1.92905e-05
31 *1451:CLK *96:16 2.14083e-05
32 *71:33 *1089:A0 3.56482e-05
33 *90:51 *96:16 0
34 *91:64 *96:16 6.62983e-05
*RES
1 *1149:X *96:16 44.8942 
2 *96:16 *1089:A0 25.4139 
*END

*D_NET *97 0.00361109
*CONN
*I *1090:A0 I *D sky130_fd_sc_hd__mux2_1
*I *1154:X O *D sky130_fd_sc_hd__mux4_2
*CAP
1 *1090:A0 0
2 *1154:X 0.00106111
3 *97:12 0.00106111
4 *97:12 *1243:A0 9.9471e-06
5 *97:12 *1266:S 0
6 *97:12 *1269:A1 0
7 *97:12 *1355:D 0.000653009
8 *97:12 *1403:D 1.40306e-05
9 *97:12 *109:117 3.13884e-05
10 *97:12 *270:24 0.000293366
11 *97:12 *298:78 1.78353e-05
12 *97:12 *303:26 0
13 *97:12 *307:109 0
14 *1099:CLK *97:12 0
15 *1102:D *97:12 0.000327318
16 *1104:CLK *97:12 0.000102207
17 *1379:CLK *97:12 0
18 *50:291 *97:12 0
19 *71:72 *97:12 3.97794e-05
*RES
1 *1154:X *97:12 48.3794 
2 *97:12 *1090:A0 13.8 
*END

*D_NET *98 0.00609217
*CONN
*I *1091:A0 I *D sky130_fd_sc_hd__mux2_1
*I *1159:X O *D sky130_fd_sc_hd__mux4_2
*CAP
1 *1091:A0 0.000857885
2 *1159:X 0.000719765
3 *98:16 0.00157765
4 *1091:A0 *1159:A0 0
5 *1091:A0 *1213:A0 0.000261858
6 *1091:A0 *1213:A1 6.87834e-05
7 *1091:A0 *1356:D 0.000617011
8 *1091:A0 *1762:D 0
9 *1091:A0 *105:22 0
10 *1091:A0 *108:20 0.000395866
11 *1091:A0 *108:152 0.000173328
12 *1091:A0 *114:226 0
13 *1091:A0 *374:10 0
14 *1091:A0 *759:14 0.000119548
15 *98:16 *1159:A0 0.000605189
16 *98:16 *1322:A0 3.97657e-05
17 *98:16 *1322:S 8.90595e-05
18 *98:16 *1354:D 0.000164482
19 *98:16 *1450:D 0
20 *98:16 *106:123 5.94896e-06
21 *98:16 *268:22 0
22 *1103:CLK *1091:A0 0
23 *1103:D *1091:A0 0
24 *1354:CLK *98:16 0.000211051
25 *1765:RESET_B *1091:A0 2.77659e-05
26 *50:250 *1091:A0 0.000110201
27 *50:256 *1091:A0 4.70078e-05
28 *90:23 *98:16 0
*RES
1 *1159:X *98:16 36.9239 
2 *98:16 *1091:A0 49.6863 
*END

*D_NET *99 0.00604985
*CONN
*I *1092:A0 I *D sky130_fd_sc_hd__mux2_1
*I *1164:X O *D sky130_fd_sc_hd__mux4_2
*CAP
1 *1092:A0 0.000624293
2 *1164:X 0.000421326
3 *99:14 0.00104562
4 *1092:A0 *1163:A2 9.40156e-05
5 *1092:A0 *1202:S 5.74499e-06
6 *1092:A0 *1209:A0 5.20692e-05
7 *1092:A0 *1266:S 0
8 *1092:A0 *1325:A1 3.67257e-05
9 *1092:A0 *1400:D 5.04021e-05
10 *1092:A0 *280:16 0.000210602
11 *1092:A0 *298:72 0.000479132
12 *1092:A0 *443:20 0
13 *99:14 *1164:A0 0.00133721
14 *99:14 *1164:A1 0.000107404
15 *99:14 *1202:S 4.53889e-05
16 *99:14 *1325:A1 1.57414e-05
17 *99:14 *1405:D 0.000185057
18 *99:14 *109:139 0.000274288
19 *99:14 *296:114 0.000234289
20 *1381:CLK *1092:A0 0.000691798
21 *1381:CLK *99:14 1.04232e-05
22 *81:20 *1092:A0 0.000121629
23 *81:28 *1092:A0 6.68971e-06
*RES
1 *1164:X *99:14 39.711 
2 *99:14 *1092:A0 37.3694 
*END

*D_NET *100 0.00864415
*CONN
*I *1093:A0 I *D sky130_fd_sc_hd__mux2_1
*I *1169:X O *D sky130_fd_sc_hd__mux4_2
*CAP
1 *1093:A0 0
2 *1169:X 0.000997919
3 *100:42 0.0010631
4 *100:20 0.00206102
5 *100:20 *1143:S0 0
6 *100:20 *1169:A0 3.61629e-06
7 *100:20 *1169:S0 7.43578e-06
8 *100:20 *1174:A0 0.000377217
9 *100:20 *1216:A1 0.000225616
10 *100:20 *1216:S 3.4855e-05
11 *100:20 *1327:A1 1.21258e-05
12 *100:20 *1359:D 5.33005e-05
13 *100:20 *1383:D 4.87669e-06
14 *100:20 *1407:D 0.000116648
15 *100:20 *111:47 0.00052237
16 *100:20 *114:47 0
17 *100:20 *288:18 0.000565637
18 *100:20 *376:12 5.52302e-05
19 *100:20 *377:10 0.000140933
20 *100:42 *1094:A0 0
21 *100:42 *1143:A3 0
22 *100:42 *1143:S0 0
23 *100:42 *1143:S1 0
24 *100:42 *1210:A1 0.000440718
25 *100:42 *1210:S 0.000222806
26 *100:42 *1216:S 0.000414079
27 *100:42 *1353:D 0
28 *100:42 *1377:D 1.64343e-05
29 *100:42 *125:8 0.000125057
30 *100:42 *371:10 6.09919e-05
31 *1093:S *100:42 0.000142856
32 *1094:S *100:42 0
33 *1105:D *100:42 0.000142856
34 *1106:D *100:42 5.04705e-05
35 *1106:RESET_B *100:42 9.62151e-05
36 *1377:CLK *100:42 5.71472e-05
37 *1407:CLK *100:20 0.000283964
38 *1767:RESET_B *100:42 0
39 *1784:RESET_B *100:42 0
40 *50:197 *100:42 0
41 *50:201 *100:42 0
42 *70:14 *100:42 0
43 *70:75 *100:42 0.000348649
44 *89:105 *100:20 0
*RES
1 *1169:X *100:20 49.6467 
2 *100:20 *100:42 47.8616 
3 *100:42 *1093:A0 9.3 
*END

*D_NET *101 0.00618464
*CONN
*I *1094:A0 I *D sky130_fd_sc_hd__mux2_1
*I *1174:X O *D sky130_fd_sc_hd__mux4_2
*CAP
1 *1094:A0 0.000969004
2 *1174:X 0.00061748
3 *101:16 0.00158648
4 *1094:A0 *1144:A0 0
5 *1094:A0 *1215:S 0
6 *1094:A0 *1216:S 9.8883e-06
7 *1094:A0 *1267:S 0
8 *1094:A0 *1273:A0 0
9 *1094:A0 *1273:A1 0
10 *1094:A0 *1273:S 0
11 *1094:A0 *1353:D 0.000623185
12 *1094:A0 *1407:D 4.00276e-06
13 *1094:A0 *111:35 0
14 *101:16 *1144:S0 0
15 *101:16 *1166:A0 5.52238e-05
16 *101:16 *1166:A1 0.000258792
17 *101:16 *1166:A2 9.31893e-05
18 *101:16 *1166:S1 0.000139907
19 *101:16 *1169:A0 0.000376698
20 *101:16 *1244:A0 5.33005e-05
21 *101:16 *1244:A1 0.000255966
22 *101:16 *1382:D 0
23 *101:16 *111:35 7.07155e-06
24 *101:16 *263:14 0
25 *101:16 *288:18 0
26 *1105:CLK *1094:A0 0
27 *1105:D *1094:A0 0
28 *1106:D *1094:A0 7.47234e-05
29 *89:6 *1094:A0 2.14757e-05
30 *89:12 *1094:A0 0.000203228
31 *89:105 *1094:A0 0.00083502
32 *100:42 *1094:A0 0
*RES
1 *1174:X *101:16 31.5278 
2 *101:16 *1094:A0 41.5526 
*END

*D_NET *102 0.00625762
*CONN
*I *1459:A_N I *D sky130_fd_sc_hd__and4b_1
*I *1082:A_N I *D sky130_fd_sc_hd__nand2b_1
*I *1085:A_N I *D sky130_fd_sc_hd__nand3b_1
*I *1458:A_N I *D sky130_fd_sc_hd__nand3b_1
*I *1457:A_N I *D sky130_fd_sc_hd__nand2b_1
*I *1480:Q O *D sky130_fd_sc_hd__dfstp_2
*CAP
1 *1459:A_N 0
2 *1082:A_N 2.46036e-05
3 *1085:A_N 0.000206472
4 *1458:A_N 6.41671e-05
5 *1457:A_N 0.000139034
6 *1480:Q 0.000242107
7 *102:46 0.000536022
8 *102:31 0.000508046
9 *102:18 0.000672888
10 *102:12 0.000637029
11 *1082:A_N *1082:B 9.60939e-05
12 *1085:A_N *1082:B 5.7616e-05
13 *1085:A_N *1096:D 1.00375e-05
14 *1085:A_N *1696:B 4.58096e-05
15 *1085:A_N *127:10 9.80173e-05
16 *1085:A_N *765:32 0
17 *1085:A_N *765:36 0.000174734
18 *1457:A_N *1457:B 3.68685e-05
19 *1457:A_N *1459:B 1.98839e-05
20 *1457:A_N *444:20 0
21 *1457:A_N *445:36 0
22 *1457:A_N *465:6 2.51343e-06
23 *1458:A_N *1458:B 5.52238e-05
24 *1458:A_N *1505:D 1.24368e-05
25 *1458:A_N *442:33 3.93346e-05
26 *1458:A_N *471:18 0.000158826
27 *102:12 *1459:B 7.32272e-05
28 *102:12 *1459:C 9.25014e-06
29 *102:12 *442:12 0
30 *102:12 *454:12 0
31 *102:12 *455:25 0.000219385
32 *102:18 *1459:B 0.000366623
33 *102:18 *1469:C 1.36761e-06
34 *102:18 *442:12 0
35 *102:18 *465:6 2.87944e-05
36 *102:18 *465:19 6.63792e-06
37 *102:31 *1468:B 0
38 *102:31 *103:25 3.17148e-05
39 *102:31 *103:38 0.000348068
40 *102:46 *1096:D 3.23958e-05
41 *102:46 *1460:B 0.000133012
42 *102:46 *1468:B 4.1331e-06
43 *102:46 *103:25 0.0002068
44 *1096:RESET_B *1085:A_N 0.000179995
45 *1098:CLK *1085:A_N 0.000201127
46 *1098:CLK *102:46 3.17148e-05
47 *67:12 *1085:A_N 0.000269784
48 *69:115 *1458:A_N 2.42547e-05
49 *74:12 *102:46 0
50 *74:14 *1082:A_N 4.27935e-05
51 *74:16 *1082:A_N 5.33005e-05
52 *75:40 *102:31 0.000155476
*RES
1 *1480:Q *102:12 27.0872 
2 *102:12 *102:18 12.8961 
3 *102:18 *1457:A_N 12.7654 
4 *102:18 *102:31 10.9852 
5 *102:31 *1458:A_N 16.8446 
6 *102:31 *102:46 11.0149 
7 *102:46 *1085:A_N 26.2506 
8 *102:46 *1082:A_N 15.1119 
9 *102:12 *1459:A_N 9.3 
*END

*D_NET *103 0.00416263
*CONN
*I *1459:B I *D sky130_fd_sc_hd__and4b_1
*I *1457:B I *D sky130_fd_sc_hd__nand2b_1
*I *1458:B I *D sky130_fd_sc_hd__nand3b_1
*I *1096:D I *D sky130_fd_sc_hd__dfrtp_1
*I *1097:Q O *D sky130_fd_sc_hd__dfrtp_1
*CAP
1 *1459:B 0.000489502
2 *1457:B 2.67453e-05
3 *1458:B 1.40568e-05
4 *1096:D 0.000147278
5 *1097:Q 2.16853e-05
6 *103:38 0.000626526
7 *103:25 0.000351312
8 *103:8 0.00039594
9 *1096:D *1082:B 9.95752e-05
10 *1096:D *1696:B 3.34366e-05
11 *1457:B *445:36 7.08679e-06
12 *1459:B *1469:A 5.71472e-05
13 *1459:B *1500:D 5.06983e-05
14 *1459:B *445:36 9.33978e-07
15 *103:25 *1460:B 0.000134719
16 *103:25 *1505:D 1.46717e-05
17 *103:25 *442:16 5.80706e-06
18 *103:38 *1467:A 2.84494e-05
19 *103:38 *1467:B 0.000134719
20 *103:38 *1505:D 3.28534e-05
21 *103:38 *442:16 6.1684e-05
22 *1085:A_N *1096:D 1.00375e-05
23 *1097:RESET_B *1096:D 3.87603e-05
24 *1097:RESET_B *103:25 6.17167e-05
25 *1457:A_N *1457:B 3.68685e-05
26 *1457:A_N *1459:B 1.98839e-05
27 *1458:A_N *1458:B 5.52238e-05
28 *1505:RESET_B *1459:B 4.34749e-05
29 *50:531 *103:8 0
30 *67:12 *1096:D 1.72894e-05
31 *69:14 *103:25 0
32 *69:115 *1458:B 2.89016e-05
33 *74:16 *1096:D 0
34 *74:16 *103:8 3.18676e-05
35 *75:6 *1459:B 0
36 *75:34 *103:38 1.17968e-05
37 *75:40 *103:38 1.31516e-05
38 *102:12 *1459:B 7.32272e-05
39 *102:18 *1459:B 0.000366623
40 *102:31 *103:25 3.17148e-05
41 *102:31 *103:38 0.000348068
42 *102:46 *1096:D 3.23958e-05
43 *102:46 *103:25 0.0002068
*RES
1 *1097:Q *103:8 14.5426 
2 *103:8 *1096:D 19.4188 
3 *103:8 *103:25 9.43074 
4 *103:25 *1458:B 14.5426 
5 *103:25 *103:38 11.406 
6 *103:38 *1457:B 10.2282 
7 *103:38 *1459:B 25.6615 
*END

*D_NET *104 0.0318474
*CONN
*I *1563:A I *D sky130_fd_sc_hd__nor2_1
*I *1266:A1 I *D sky130_fd_sc_hd__mux2_1
*I *1320:A0 I *D sky130_fd_sc_hd__mux2_1
*I *1199:A0 I *D sky130_fd_sc_hd__mux2_1
*I *1311:A1 I *D sky130_fd_sc_hd__mux2_1
*I *1248:A1 I *D sky130_fd_sc_hd__mux2_1
*I *1293:A1 I *D sky130_fd_sc_hd__mux2_1
*I *1218:A0 I *D sky130_fd_sc_hd__mux2_1
*I *1257:A1 I *D sky130_fd_sc_hd__mux2_1
*I *1177:A1 I *D sky130_fd_sc_hd__mux2_1
*I *1228:A1 I *D sky130_fd_sc_hd__mux2_1
*I *1275:A1 I *D sky130_fd_sc_hd__mux2_1
*I *1284:A1 I *D sky130_fd_sc_hd__mux2_1
*I *1188:A1 I *D sky130_fd_sc_hd__mux2_1
*I *1302:A1 I *D sky130_fd_sc_hd__mux2_1
*I *1238:A0 I *D sky130_fd_sc_hd__mux2_1
*I *1209:A0 I *D sky130_fd_sc_hd__mux2_1
*I *1645:Q O *D sky130_fd_sc_hd__dfrtp_1
*CAP
1 *1563:A 0
2 *1266:A1 0
3 *1320:A0 0
4 *1199:A0 0
5 *1311:A1 0
6 *1248:A1 0
7 *1293:A1 7.11868e-05
8 *1218:A0 0
9 *1257:A1 0.000230995
10 *1177:A1 7.6126e-05
11 *1228:A1 0.000137195
12 *1275:A1 0.00010996
13 *1284:A1 5.01294e-05
14 *1188:A1 3.42873e-05
15 *1302:A1 1.64323e-05
16 *1238:A0 0
17 *1209:A0 0.000156189
18 *1645:Q 0.000249149
19 *104:189 0.000462079
20 *104:163 0.000492659
21 *104:159 0.000400463
22 *104:157 0.00126067
23 *104:146 0.00133916
24 *104:135 0.000168177
25 *104:133 0.000406467
26 *104:118 0.000720084
27 *104:104 0.000727458
28 *104:94 0.000512188
29 *104:82 0.000708432
30 *104:66 0.000921898
31 *104:55 0.000637155
32 *104:49 0.000418264
33 *104:30 0.000582554
34 *104:24 0.000578683
35 *104:18 0.00117165
36 *104:10 0.00101527
37 *1177:A1 *1135:A0 0
38 *1188:A1 *1167:S0 6.73561e-05
39 *1188:A1 *1284:A0 2.51343e-06
40 *1209:A0 *1209:S 1.08359e-05
41 *1209:A0 *1266:S 0
42 *1209:A0 *1400:D 0.000345387
43 *1209:A0 *443:20 9.99644e-06
44 *1228:A1 *1135:A2 0
45 *1228:A1 *1182:S 0
46 *1228:A1 *109:44 0
47 *1228:A1 *290:74 0
48 *1257:A1 *1135:A0 0
49 *1257:A1 *1135:S0 0
50 *1257:A1 *1392:D 0
51 *1257:A1 *109:34 5.52302e-05
52 *1257:A1 *257:10 8.32242e-05
53 *1275:A1 *1135:S1 0.000142856
54 *1275:A1 *1275:S 0.000144773
55 *1275:A1 *109:44 0
56 *1275:A1 *290:74 0
57 *1284:A1 *1263:S 4.59075e-05
58 *1284:A1 *1284:A0 9.71197e-05
59 *1284:A1 *1284:S 9.60875e-05
60 *1293:A1 *1293:A0 4.83091e-05
61 *1293:A1 *1293:S 6.90451e-05
62 *1302:A1 *299:12 9.90431e-05
63 *1302:A1 *442:84 9.90431e-05
64 *104:10 *1567:B1 0
65 *104:10 *1632:S 4.00276e-06
66 *104:10 *105:186 4.56437e-05
67 *104:10 *579:12 3.60533e-05
68 *104:10 *580:25 9.10431e-06
69 *104:10 *580:36 0.000131297
70 *104:18 *1548:A 0.000377183
71 *104:18 *1548:B 3.25078e-05
72 *104:18 *1552:A2 0
73 *104:18 *1555:A 0.000346238
74 *104:18 *1602:B2 1.94945e-05
75 *104:18 *105:12 0
76 *104:18 *105:16 0.000212257
77 *104:18 *105:186 0.000376235
78 *104:18 *112:18 0.000386433
79 *104:18 *112:20 0.000176417
80 *104:18 *113:33 0.000414393
81 *104:18 *113:39 1.37679e-05
82 *104:18 *580:25 0.000120073
83 *104:18 *625:10 0.000128875
84 *104:18 *625:25 4.38265e-05
85 *104:18 *626:202 0
86 *104:18 *628:34 5.58941e-05
87 *104:24 *1266:S 2.59355e-05
88 *104:24 *1511:B 0.000226014
89 *104:24 *105:16 0.000363464
90 *104:24 *113:39 1.87026e-05
91 *104:24 *442:33 0
92 *104:24 *444:34 0.000227539
93 *104:24 *513:8 0
94 *104:30 *1266:A0 7.70092e-05
95 *104:30 *1266:S 6.05161e-06
96 *104:30 *1400:D 0.00014282
97 *104:30 *442:33 0
98 *104:49 *1138:S0 9.90367e-05
99 *104:49 *1400:D 0
100 *104:49 *114:14 0.000316334
101 *104:49 *442:33 0.000595711
102 *104:49 *443:20 1.72752e-05
103 *104:49 *444:40 0.000159852
104 *104:55 *1138:S0 0
105 *104:55 *1238:A1 6.0038e-05
106 *104:55 *1320:A1 7.74578e-05
107 *104:55 *108:10 0.000385888
108 *104:55 *445:60 3.53716e-05
109 *104:66 *1199:A1 5.71472e-05
110 *104:66 *1199:S 4.88637e-05
111 *104:66 *1214:A0 4.18895e-05
112 *104:66 *1214:A1 0.000230475
113 *104:66 *1238:S 3.99614e-06
114 *104:66 *1344:D 0
115 *104:66 *1376:D 0.000189492
116 *104:66 *109:115 0.000183726
117 *104:66 *445:80 0
118 *104:66 *491:28 0.000220337
119 *104:82 *1136:S1 0.000150272
120 *104:82 *1139:A2 9.45019e-05
121 *104:82 *1154:S0 0.000111103
122 *104:82 *1199:A1 9.02331e-05
123 *104:82 *1199:S 0.00054729
124 *104:82 *1311:A0 0.000151857
125 *104:82 *1344:D 6.05161e-06
126 *104:82 *1453:D 6.12902e-05
127 *104:82 *106:115 6.87834e-06
128 *104:82 *271:28 2.94614e-05
129 *104:82 *312:120 9.41642e-05
130 *104:82 *443:68 0.000300936
131 *104:94 *1164:A0 9.6561e-06
132 *104:94 *1325:A1 0.000263632
133 *104:94 *1325:S 0.000185029
134 *104:94 *1453:D 0.00029629
135 *104:94 *109:131 1.98839e-05
136 *104:94 *296:10 0
137 *104:94 *307:20 7.80714e-06
138 *104:94 *313:10 5.41797e-06
139 *104:104 *1187:B 5.7616e-05
140 *104:104 *1248:S 0.00044468
141 *104:104 *1293:A0 4.54409e-06
142 *104:104 *259:16 1.64362e-05
143 *104:104 *292:10 0.000104236
144 *104:104 *305:6 9.60875e-05
145 *104:104 *312:10 0
146 *104:104 *443:68 0.000562786
147 *104:118 *1187:B 9.51073e-05
148 *104:118 *1217:B 7.49387e-06
149 *104:118 *1236:A_N 4.75428e-05
150 *104:118 *1247:A 5.66157e-05
151 *104:118 *1293:S 0.000266479
152 *104:118 *1302:A0 5.52302e-05
153 *104:118 *1310:A 4.51611e-05
154 *104:118 *1310:B 6.05161e-06
155 *104:118 *259:16 0.000105533
156 *104:118 *261:14 4.15914e-05
157 *104:118 *293:6 0
158 *104:118 *299:12 0.000413888
159 *104:118 *310:12 0.000106542
160 *104:118 *311:14 2.34204e-05
161 *104:118 *378:14 2.27416e-05
162 *104:133 *1167:S0 0.000173328
163 *104:133 *1175:A_N 0.000105682
164 *104:133 *1256:A 2.51343e-06
165 *104:133 *1256:B 0
166 *104:133 *1263:S 0
167 *104:133 *1283:B 1.24368e-05
168 *104:133 *259:16 0
169 *104:133 *261:14 0.000128941
170 *104:133 *306:6 0
171 *104:133 *309:8 4.30382e-05
172 *104:133 *311:10 4.29179e-05
173 *104:133 *311:14 2.8266e-06
174 *104:135 *1167:S0 0.000302902
175 *104:135 *1263:S 0
176 *104:146 *1284:S 0.000131297
177 *104:146 *285:12 0.000131297
178 *104:157 *1170:A1 0.000119189
179 *104:157 *1229:A1 5.05058e-05
180 *104:157 *1257:A0 7.63214e-05
181 *104:157 *1264:A0 8.90675e-05
182 *104:157 *1264:A1 0
183 *104:157 *1264:S 0
184 *104:157 *1276:A1 0.00027338
185 *104:157 *1284:S 3.17148e-05
186 *104:157 *1369:D 0.000156196
187 *104:157 *1371:D 0
188 *104:157 *1392:D 3.69865e-05
189 *104:157 *257:10 0
190 *104:157 *285:12 0.000528259
191 *104:157 *290:59 0
192 *104:157 *290:74 0
193 *104:157 *330:10 8.23111e-05
194 *104:157 *362:12 3.98131e-05
195 *104:163 *1135:S1 8.03176e-05
196 *104:163 *1182:S 3.81416e-06
197 *104:163 *1392:D 0.00017573
198 *104:189 *1135:A0 0
199 *104:189 *1135:S0 0
200 *104:189 *1177:S 0.000114061
201 *104:189 *1392:D 7.77652e-05
202 *104:189 *330:10 5.52238e-05
203 *1092:A0 *1209:A0 5.20692e-05
204 *1329:CLK *104:157 9.56872e-05
205 *1369:CLK *104:157 0.000195014
206 *1384:CLK *104:104 0.000117903
207 *1392:CLK *104:163 3.8469e-05
208 *1424:CLK *104:133 0
209 *1541:CLK *104:24 7.65804e-05
210 *1541:CLK *104:30 1.02821e-05
211 *1689:CLK *1177:A1 1.02504e-05
212 *2:242 *104:18 2.75651e-06
213 *2:269 *104:18 0.000107096
214 *2:276 *104:18 5.01876e-06
215 *11:14 *104:10 0.000288576
216 *68:179 *104:157 8.21172e-05
217 *68:216 *104:82 6.30931e-05
218 *79:10 *104:157 5.38886e-05
219 *79:14 *104:157 0.000122717
220 *79:150 *104:157 0
221 *81:20 *104:55 0
222 *81:40 *104:82 0
223 *87:92 *104:118 4.47762e-05
224 *90:66 *104:104 0.000222878
225 *92:10 *104:157 0.000174257
226 *92:16 *104:157 0.000182799
227 *94:18 *104:55 1.00375e-05
228 *94:28 *104:24 0
*RES
1 *1645:Q *104:10 23.503 
2 *104:10 *104:18 38.1685 
3 *104:18 *104:24 20.0446 
4 *104:24 *104:30 10.0693 
5 *104:30 *1209:A0 20.2109 
6 *104:30 *104:49 16.8268 
7 *104:49 *104:55 15.906 
8 *104:55 *1238:A0 9.3 
9 *104:55 *104:66 17.3021 
10 *104:66 *104:82 38.4704 
11 *104:82 *104:94 20.3119 
12 *104:94 *104:104 22.8924 
13 *104:104 *104:118 31.2662 
14 *104:118 *1302:A1 15.1119 
15 *104:118 *104:133 14.7476 
16 *104:133 *104:135 4.15844 
17 *104:135 *1188:A1 10.6119 
18 *104:135 *104:146 6.77724 
19 *104:146 *1284:A1 16.2505 
20 *104:146 *104:157 49.827 
21 *104:157 *104:159 4.5 
22 *104:159 *104:163 13.2129 
23 *104:163 *1275:A1 17.9584 
24 *104:163 *1228:A1 17.3396 
25 *104:159 *104:189 9.82181 
26 *104:189 *1177:A1 15.2357 
27 *104:189 *1257:A1 20.508 
28 *104:133 *1218:A0 9.3 
29 *104:104 *1293:A1 11.9671 
30 *104:94 *1248:A1 9.3 
31 *104:82 *1311:A1 9.3 
32 *104:66 *1199:A0 9.3 
33 *104:49 *1320:A0 9.3 
34 *104:24 *1266:A1 9.3 
35 *104:10 *1563:A 13.8 
*END

*D_NET *105 0.0402721
*CONN
*I *1569:A I *D sky130_fd_sc_hd__nor2_1
*I *1178:A1 I *D sky130_fd_sc_hd__mux2_1
*I *1229:A1 I *D sky130_fd_sc_hd__mux2_1
*I *1276:A1 I *D sky130_fd_sc_hd__mux2_1
*I *1258:A1 I *D sky130_fd_sc_hd__mux2_1
*I *1210:A0 I *D sky130_fd_sc_hd__mux2_1
*I *1267:A1 I *D sky130_fd_sc_hd__mux2_1
*I *1239:A0 I *D sky130_fd_sc_hd__mux2_1
*I *1321:A0 I *D sky130_fd_sc_hd__mux2_1
*I *1312:A1 I *D sky130_fd_sc_hd__mux2_1
*I *1294:A1 I *D sky130_fd_sc_hd__mux2_1
*I *1200:A0 I *D sky130_fd_sc_hd__mux2_1
*I *1249:A1 I *D sky130_fd_sc_hd__mux2_1
*I *1303:A1 I *D sky130_fd_sc_hd__mux2_1
*I *1219:A0 I *D sky130_fd_sc_hd__mux2_1
*I *1189:A1 I *D sky130_fd_sc_hd__mux2_1
*I *1285:A1 I *D sky130_fd_sc_hd__mux2_1
*I *1646:Q O *D sky130_fd_sc_hd__dfrtp_1
*CAP
1 *1569:A 3.95038e-05
2 *1178:A1 0
3 *1229:A1 7.77869e-05
4 *1276:A1 9.08548e-05
5 *1258:A1 0.000122237
6 *1210:A0 0
7 *1267:A1 2.54171e-05
8 *1239:A0 0
9 *1321:A0 0.000195612
10 *1312:A1 0
11 *1294:A1 0.000390385
12 *1200:A0 0
13 *1249:A1 0
14 *1303:A1 0
15 *1219:A0 0
16 *1189:A1 0.000441802
17 *1285:A1 0.000174299
18 *1646:Q 3.76744e-05
19 *105:221 0.000583006
20 *105:202 0.000630592
21 *105:200 0.000926449
22 *105:194 0.00154007
23 *105:186 0.00110045
24 *105:115 0.000433667
25 *105:76 0.000782747
26 *105:66 0.000314932
27 *105:58 0.00118551
28 *105:48 0.00136141
29 *105:42 0.000556813
30 *105:40 0.000703175
31 *105:34 0.000913247
32 *105:30 0.000701212
33 *105:24 0.000713753
34 *105:22 0.00151151
35 *105:16 0.00237945
36 *105:12 0.00146799
37 *105:8 0.000800127
38 *1189:A1 *1141:A3 0.000178656
39 *1189:A1 *1189:A0 3.53786e-05
40 *1189:A1 *1189:S 1.92905e-05
41 *1189:A1 *1308:S 0
42 *1189:A1 *1361:D 0
43 *1189:A1 *261:14 0
44 *1189:A1 *286:22 1.07719e-05
45 *1189:A1 *444:168 0
46 *1229:A1 *290:59 0
47 *1258:A1 *1178:A0 7.1724e-05
48 *1258:A1 *1258:A0 0.000356342
49 *1258:A1 *261:12 0.000331448
50 *1258:A1 *323:10 1.00375e-05
51 *1258:A1 *331:10 0.00018037
52 *1258:A1 *442:152 6.8646e-06
53 *1267:A1 *1267:S 2.89016e-05
54 *1276:A1 *1276:A0 1.58163e-05
55 *1276:A1 *1276:S 2.89114e-05
56 *1276:A1 *1369:D 0.00027338
57 *1285:A1 *1219:S 0
58 *1285:A1 *1285:S 5.71472e-05
59 *1285:A1 *285:26 0.000294951
60 *1294:A1 *1200:A1 4.1331e-06
61 *1294:A1 *1294:S 5.52238e-05
62 *1294:A1 *1326:S 5.52238e-05
63 *1294:A1 *114:47 0
64 *1294:A1 *114:49 0
65 *1294:A1 *263:14 0
66 *1294:A1 *444:92 0.000160507
67 *1321:A0 *1449:D 0
68 *1321:A0 *395:12 0
69 *1569:A *1567:B1 6.04258e-05
70 *105:8 *112:18 6.05161e-06
71 *105:12 *1555:A 3.74872e-05
72 *105:12 *1602:B2 0.000328653
73 *105:12 *112:18 0.000325217
74 *105:12 *112:20 0.000380606
75 *105:12 *112:30 0.000360977
76 *105:12 *581:16 4.04359e-05
77 *105:12 *618:14 1.5942e-05
78 *105:12 *625:10 5.11571e-05
79 *105:12 *625:25 1.12484e-05
80 *105:16 *1266:S 0
81 *105:16 *1511:A_N 0.000121596
82 *105:16 *1702:A0 0
83 *105:16 *112:30 0.000301979
84 *105:16 *112:32 2.61337e-05
85 *105:16 *444:34 1.08601e-05
86 *105:22 *1091:A1 0
87 *105:22 *1701:A0 0
88 *105:22 *1765:D 1.41029e-05
89 *105:22 *121:10 0
90 *105:22 *759:14 0
91 *105:24 *1143:A0 0
92 *105:24 *1267:S 7.85979e-05
93 *105:24 *403:10 0
94 *105:30 *1239:S 0.00010096
95 *105:30 *1401:D 0
96 *105:30 *403:10 0
97 *105:34 *1239:S 0.000175251
98 *105:34 *303:51 0.000493359
99 *105:40 *1245:A0 1.72894e-05
100 *105:40 *1245:A1 3.05446e-05
101 *105:40 *303:40 0
102 *105:40 *303:51 9.10486e-05
103 *105:40 *312:77 1.32552e-05
104 *105:42 *1142:A1 2.14658e-05
105 *105:42 *1200:A1 3.67142e-05
106 *105:42 *1200:S 1.00073e-05
107 *105:42 *1312:A0 0.000239722
108 *105:42 *1326:S 0
109 *105:42 *303:40 0
110 *105:42 *312:77 1.32552e-05
111 *105:48 *1142:A1 3.18676e-05
112 *105:48 *1142:S1 5.72024e-05
113 *105:48 *1200:S 4.8035e-05
114 *105:48 *1249:A0 0.000574073
115 *105:48 *1249:S 4.18895e-05
116 *105:48 *1345:D 5.82527e-06
117 *105:48 *312:77 0
118 *105:48 *339:10 0
119 *105:58 *1144:A2 0.000157363
120 *105:58 *1157:S1 0
121 *105:58 *1169:S0 0
122 *105:58 *1174:A1 0.000318107
123 *105:58 *1206:A1 0
124 *105:58 *1249:A0 5.71472e-05
125 *105:58 *1249:S 0.000273269
126 *105:58 *1303:S 2.89016e-05
127 *105:58 *1406:D 0.000153884
128 *105:58 *1444:D 5.33091e-06
129 *105:58 *110:30 0
130 *105:58 *114:60 0
131 *105:58 *433:10 0
132 *105:58 *441:10 0
133 *105:58 *445:154 6.5185e-05
134 *105:58 *445:160 0
135 *105:66 *1157:S1 9.40041e-05
136 *105:66 *1174:A3 0.000131297
137 *105:66 *1219:S 9.71197e-05
138 *105:66 *1303:A0 0
139 *105:66 *1303:S 0
140 *105:66 *1433:D 0.000125547
141 *105:66 *114:173 0.000133005
142 *105:76 *1219:S 5.33005e-05
143 *105:76 *1433:D 5.52238e-05
144 *105:76 *285:26 0.000529356
145 *105:76 *305:32 0.00022117
146 *105:76 *444:246 8.07951e-05
147 *105:76 *444:271 0.00015134
148 *105:115 *1142:S0 0
149 *105:115 *1200:A1 3.20153e-05
150 *105:186 *1563:B 0.000179483
151 *105:186 *1565:B1 0.000264153
152 *105:186 *1567:B1 1.21289e-05
153 *105:186 *1602:B2 7.34455e-06
154 *105:186 *1632:S 0.000137983
155 *105:186 *112:18 5.66157e-05
156 *105:186 *579:12 0.00028013
157 *105:194 *1567:B1 5.89838e-05
158 *105:194 *1589:B2 7.49387e-06
159 *105:194 *109:14 5.52238e-05
160 *105:194 *109:103 0.000718308
161 *105:194 *580:279 0.000137983
162 *105:194 *580:281 0.000394975
163 *105:194 *580:289 0.000181803
164 *105:194 *587:63 0
165 *105:194 *637:33 0.000647106
166 *105:200 *1135:S0 1.69115e-05
167 *105:200 *1178:S 5.52302e-05
168 *105:200 *1589:A1 0
169 *105:200 *1589:B2 0.000101046
170 *105:200 *1590:A3 2.15245e-05
171 *105:200 *1628:A1 0
172 *105:200 *1633:S 0.000114577
173 *105:200 *1650:D 7.15962e-05
174 *105:200 *1682:D 8.07397e-06
175 *105:200 *109:34 9.67711e-05
176 *105:202 *1135:S0 5.89643e-05
177 *105:202 *1178:A0 7.99632e-05
178 *105:202 *442:152 3.69865e-05
179 *105:221 *1145:S0 1.29201e-05
180 *105:221 *1178:A0 0
181 *105:221 *1229:A0 7.07598e-05
182 *105:221 *1229:S 1.24368e-05
183 *105:221 *1393:D 6.2683e-05
184 *105:221 *106:36 0
185 *105:221 *331:10 5.33005e-05
186 *1091:A0 *105:22 0
187 *1099:CLK *105:16 0.000120411
188 *1099:D *105:16 0.000132297
189 *1104:RESET_B *105:16 0.000134719
190 *1106:D *105:22 8.32171e-05
191 *1106:D *105:24 1.02504e-05
192 *1109:A *105:22 0
193 *1119:A *105:200 0.000244093
194 *1119:A *105:221 0
195 *1127:A *105:58 9.23689e-05
196 *1388:CLK *105:76 0.00048746
197 *1401:CLK *1321:A0 0
198 *1406:CLK *105:58 2.89114e-05
199 *1444:CLK *105:58 2.57838e-05
200 *1447:CLK *105:58 5.33005e-05
201 *1455:CLK *1294:A1 0.000196066
202 *1541:CLK *105:16 0
203 *1628:A0 *105:200 0
204 *1633:A0 *105:200 4.05356e-05
205 *1646:RESET_B *105:8 2.15245e-05
206 *1685:CLK *105:200 0.000298243
207 *1762:CLK *105:22 0
208 *1765:CLK *105:22 0
209 *1766:CLK *105:16 0
210 *1787:CLK *105:30 0
211 *1:21 *105:16 0.000107879
212 *11:14 *105:186 0
213 *11:22 *105:186 6.8445e-06
214 *11:22 *105:194 0.000206954
215 *29:13 *105:186 0.000227532
216 *29:13 *105:194 0.00027808
217 *30:13 *105:194 9.71197e-05
218 *30:13 *105:200 0.000299452
219 *50:201 *105:22 0
220 *50:208 *105:22 0
221 *50:239 *105:22 0
222 *50:250 *105:22 0
223 *50:256 *105:22 0.000133012
224 *50:263 *105:22 0.000205264
225 *50:291 *105:16 0.000178424
226 *50:291 *105:22 0.000493437
227 *70:14 *105:24 0
228 *70:16 *105:24 0
229 *70:22 *105:24 0
230 *70:22 *105:30 0
231 *70:24 *105:30 0
232 *70:75 *105:22 5.9533e-05
233 *70:75 *105:24 1.76135e-05
234 *70:86 *105:22 0
235 *71:16 *105:22 0
236 *71:64 *105:16 0
237 *71:64 *105:22 0
238 *79:29 *105:221 0
239 *80:6 *105:200 2.32625e-05
240 *80:12 *105:200 5.05484e-05
241 *80:93 *105:200 0.000186161
242 *82:20 *105:16 0
243 *84:23 *105:8 3.32631e-05
244 *85:8 *1285:A1 5.33005e-05
245 *85:8 *105:76 4.27935e-05
246 *85:14 *1189:A1 0.000203557
247 *85:37 *1189:A1 0.000128868
248 *85:139 *1189:A1 3.17148e-05
249 *88:20 *105:58 0.000144512
250 *88:22 *105:58 0.000215049
251 *88:24 *105:58 0.000168698
252 *88:28 *105:58 3.17148e-05
253 *88:112 *105:58 3.00139e-05
254 *94:28 *105:16 0
255 *104:10 *105:186 4.56437e-05
256 *104:18 *105:12 0
257 *104:18 *105:16 0.000212257
258 *104:18 *105:186 0.000376235
259 *104:24 *105:16 0.000363464
260 *104:157 *1229:A1 5.05058e-05
261 *104:157 *1276:A1 0.00027338
*RES
1 *1646:Q *105:8 15.1119 
2 *105:8 *105:12 19.6412 
3 *105:12 *105:16 40.619 
4 *105:16 *105:22 39.3195 
5 *105:22 *105:24 5.2228 
6 *105:24 *105:30 18.2624 
7 *105:30 *105:34 13.2129 
8 *105:34 *105:40 19.7724 
9 *105:40 *105:42 7.00499 
10 *105:42 *105:48 12.1783 
11 *105:48 *105:58 43.6536 
12 *105:58 *105:66 16.005 
13 *105:66 *105:76 20.708 
14 *105:76 *1285:A1 16.305 
15 *105:76 *1189:A1 31.8397 
16 *105:66 *1219:A0 9.3 
17 *105:58 *1303:A1 9.3 
18 *105:48 *1249:A1 9.3 
19 *105:42 *105:115 5.93565 
20 *105:115 *1200:A0 13.8 
21 *105:115 *1294:A1 25.2605 
22 *105:40 *1312:A1 9.3 
23 *105:34 *1321:A0 18.602 
24 *105:30 *1239:A0 9.3 
25 *105:24 *1267:A1 14.5426 
26 *105:22 *1210:A0 13.8 
27 *105:8 *105:186 22.1734 
28 *105:186 *105:194 30.5695 
29 *105:194 *105:200 38.1388 
30 *105:200 *105:202 4.38121 
31 *105:202 *1258:A1 23.2307 
32 *105:202 *105:221 19.6189 
33 *105:221 *1276:A1 19.3446 
34 *105:221 *1229:A1 15.7307 
35 *105:200 *1178:A1 13.8 
36 *105:186 *1569:A 10.8842 
*END

*D_NET *106 0.0358119
*CONN
*I *1240:A0 I *D sky130_fd_sc_hd__mux2_1
*I *1211:A0 I *D sky130_fd_sc_hd__mux2_1
*I *1313:A1 I *D sky130_fd_sc_hd__mux2_1
*I *1250:A1 I *D sky130_fd_sc_hd__mux2_1
*I *1220:A0 I *D sky130_fd_sc_hd__mux2_1
*I *1190:A1 I *D sky130_fd_sc_hd__mux2_1
*I *1286:A1 I *D sky130_fd_sc_hd__mux2_1
*I *1304:A1 I *D sky130_fd_sc_hd__mux2_1
*I *1295:A1 I *D sky130_fd_sc_hd__mux2_1
*I *1201:A0 I *D sky130_fd_sc_hd__mux2_1
*I *1268:A1 I *D sky130_fd_sc_hd__mux2_1
*I *1322:A0 I *D sky130_fd_sc_hd__mux2_1
*I *1573:A I *D sky130_fd_sc_hd__nor2_1
*I *1259:A1 I *D sky130_fd_sc_hd__mux2_1
*I *1230:A1 I *D sky130_fd_sc_hd__mux2_1
*I *1277:A1 I *D sky130_fd_sc_hd__mux2_1
*I *1179:A1 I *D sky130_fd_sc_hd__mux2_1
*I *1647:Q O *D sky130_fd_sc_hd__dfrtp_1
*CAP
1 *1240:A0 0
2 *1211:A0 0.000109267
3 *1313:A1 0
4 *1250:A1 0
5 *1220:A0 0
6 *1190:A1 0.000209454
7 *1286:A1 0.0003548
8 *1304:A1 0
9 *1295:A1 0.000249813
10 *1201:A0 0
11 *1268:A1 0.00029205
12 *1322:A0 9.4775e-05
13 *1573:A 8.11294e-05
14 *1259:A1 3.5703e-05
15 *1230:A1 0.00025119
16 *1277:A1 0.000154232
17 *1179:A1 0
18 *1647:Q 9.65189e-05
19 *106:215 0.0003548
20 *106:213 0.000323864
21 *106:207 0.000384888
22 *106:203 0.000302217
23 *106:186 0.000541727
24 *106:180 0.000580492
25 *106:165 0.00110087
26 *106:134 0.0010726
27 *106:123 0.00025274
28 *106:117 0.000383445
29 *106:115 0.0015012
30 *106:113 0.0020771
31 *106:94 0.00088787
32 *106:70 0.000363103
33 *106:57 0.000501355
34 *106:36 0.000905234
35 *106:26 0.0017529
36 *106:6 0.00132973
37 *1190:A1 *1190:S 4.22908e-05
38 *1190:A1 *1305:A1 7.07484e-05
39 *1190:A1 *1435:D 3.30309e-05
40 *1190:A1 *273:10 0
41 *1190:A1 *283:8 0.000214342
42 *1190:A1 *309:24 0
43 *1190:A1 *311:18 9.41642e-05
44 *1190:A1 *311:34 0.000230475
45 *1190:A1 *420:8 0
46 *1211:A0 *1148:A0 0.000312396
47 *1211:A0 *1148:S0 0.000133688
48 *1211:A0 *1211:A1 9.90431e-05
49 *1211:A0 *1211:S 8.76257e-05
50 *1211:A0 *1215:S 0.000185824
51 *1211:A0 *114:226 1.54142e-05
52 *1211:A0 *268:22 3.97677e-05
53 *1230:A1 *1160:S1 0
54 *1230:A1 *1230:A0 0.000312215
55 *1230:A1 *1259:S 0
56 *1230:A1 *1262:S 1.21258e-05
57 *1230:A1 *1275:S 0
58 *1230:A1 *1280:A0 9.60875e-05
59 *1230:A1 *306:68 5.38242e-05
60 *1259:A1 *1259:A0 5.33005e-05
61 *1259:A1 *306:68 9.41642e-05
62 *1268:A1 *1148:A3 6.79735e-05
63 *1268:A1 *1322:A1 1.19309e-05
64 *1268:A1 *1322:S 0.000104236
65 *1268:A1 *1402:D 0
66 *1268:A1 *307:34 0
67 *1277:A1 *1145:A3 8.5229e-05
68 *1277:A1 *1145:S1 4.46231e-06
69 *1277:A1 *1277:A0 2.27416e-05
70 *1277:A1 *1394:D 2.89016e-05
71 *1277:A1 *442:172 9.33978e-07
72 *1286:A1 *1147:A0 3.06878e-06
73 *1286:A1 *1147:A2 3.88139e-05
74 *1286:A1 *1286:A0 0.000131601
75 *1286:A1 *1304:A0 0.000181796
76 *1286:A1 *1304:S 4.58194e-05
77 *1286:A1 *1434:D 0.000622172
78 *1286:A1 *311:34 0
79 *1286:A1 *388:6 9.90367e-05
80 *1286:A1 *444:216 0
81 *1295:A1 *1386:D 0
82 *1295:A1 *274:18 0.000217262
83 *1295:A1 *305:22 4.73656e-05
84 *1295:A1 *305:28 0.00056397
85 *1295:A1 *348:10 0.00018037
86 *1322:A0 *1148:A2 5.06983e-05
87 *1322:A0 *1322:S 3.4879e-05
88 *1322:A0 *268:22 1.97756e-05
89 *1573:A *1575:A3 9.16173e-05
90 *1573:A *581:83 2.40557e-05
91 *1573:A *581:97 5.52238e-05
92 *106:6 *1575:A3 9.33978e-07
93 *106:6 *1589:B1 0
94 *106:6 *581:83 4.25079e-05
95 *106:26 *1571:A 0
96 *106:26 *1575:A1 3.75306e-05
97 *106:26 *1575:A2 0
98 *106:26 *1575:A3 0
99 *106:26 *1575:B1 0
100 *106:26 *1589:B1 0
101 *106:26 *1647:D 0
102 *106:26 *1658:D 3.05434e-05
103 *106:26 *1673:D 0.000210109
104 *106:26 *108:194 0
105 *106:26 *261:12 5.71472e-05
106 *106:26 *581:83 0.00010982
107 *106:26 *637:10 9.60939e-05
108 *106:26 *651:14 0
109 *106:36 *1140:A3 0.000278819
110 *106:36 *1140:S1 5.33005e-05
111 *106:36 *1276:A0 0.000275999
112 *106:36 *1276:S 4.15874e-05
113 *106:36 *1409:D 5.95099e-05
114 *106:36 *108:194 0
115 *106:36 *261:12 6.58013e-05
116 *106:36 *324:10 6.97494e-05
117 *106:36 *331:10 0
118 *106:57 *1229:S 1.00073e-05
119 *106:57 *1276:S 3.34295e-05
120 *106:57 *1394:D 2.16129e-05
121 *106:57 *108:223 9.33978e-07
122 *106:57 *277:10 0.000332434
123 *106:57 *290:42 1.18064e-05
124 *106:57 *324:10 1.00073e-05
125 *106:57 *442:172 6.13757e-06
126 *106:70 *1160:S0 4.8936e-05
127 *106:70 *1394:D 0.000153769
128 *106:70 *277:10 0.000248493
129 *106:94 *586:86 0.000177467
130 *106:113 *1575:A3 0.000114645
131 *106:113 *1576:A 5.49257e-05
132 *106:113 *1580:A2 0.000104614
133 *106:113 *1580:A3 0.000117585
134 *106:113 *1580:B1 4.70981e-05
135 *106:113 *1591:A2 0
136 *106:113 *1659:D 3.2006e-05
137 *106:113 *108:192 8.15095e-05
138 *106:113 *108:194 7.65689e-05
139 *106:113 *580:133 0.000128146
140 *106:113 *581:83 4.22839e-05
141 *106:113 *581:122 0
142 *106:113 *587:32 0
143 *106:113 *639:10 2.1527e-05
144 *106:115 *1139:S0 8.47063e-05
145 *106:115 *1144:S1 0.000670973
146 *106:115 *1154:A1 0
147 *106:115 *1154:S0 0
148 *106:115 *1199:S 0.000362653
149 *106:115 *1580:B1 0
150 *106:115 *1600:A3 0.000119696
151 *106:115 *1622:A1 4.12023e-05
152 *106:115 *1652:D 0.000481292
153 *106:115 *271:28 0
154 *106:115 *280:16 0.000103974
155 *106:115 *426:12 0
156 *106:115 *429:12 0
157 *106:115 *443:32 0.000103439
158 *106:115 *443:34 0.000720439
159 *106:115 *444:520 0
160 *106:115 *445:80 1.00375e-05
161 *106:115 *492:28 0
162 *106:115 *581:116 0.000117903
163 *106:115 *581:122 5.55016e-05
164 *106:117 *1144:S1 0.000393863
165 *106:117 *1148:A1 8.23111e-05
166 *106:117 *1240:A1 0.000116271
167 *106:117 *444:520 0
168 *106:123 *1144:S1 0.000125582
169 *106:123 *1148:A1 5.80706e-06
170 *106:123 *1148:A3 0
171 *106:123 *1322:S 1.39726e-05
172 *106:123 *268:22 0.000146035
173 *106:123 *444:503 4.15161e-05
174 *106:165 *1146:A0 0
175 *106:165 *1148:A3 5.7616e-05
176 *106:165 *1159:A1 0
177 *106:165 *1162:S0 0
178 *106:165 *1315:S 0.000339013
179 *106:165 *1322:A1 0
180 *106:165 *268:22 0.000241451
181 *106:165 *296:20 0.000109918
182 *106:165 *312:32 1.33343e-05
183 *106:165 *428:8 0
184 *106:165 *444:520 1.41026e-05
185 *106:180 *1146:A0 0
186 *106:180 *1146:S0 0
187 *106:180 *1159:A2 0
188 *106:180 *1313:A0 0.000134719
189 *106:180 *1346:D 0
190 *106:180 *312:32 0.000227748
191 *106:180 *436:10 0.000203725
192 *106:180 *444:271 2.82057e-05
193 *106:180 *444:282 3.34687e-05
194 *106:186 *1149:A3 0.000549247
195 *106:186 *107:104 9.60939e-05
196 *106:186 *299:32 0
197 *106:186 *305:22 0.000173804
198 *106:186 *311:16 3.94624e-05
199 *106:186 *348:10 2.24646e-05
200 *106:203 *1146:A3 4.08637e-05
201 *106:203 *1250:A0 5.52238e-05
202 *106:203 *1250:S 2.59355e-05
203 *106:207 *1147:A0 5.52238e-05
204 *106:207 *1150:S0 4.18895e-05
205 *106:207 *1220:S 5.33005e-05
206 *106:207 *1250:A0 2.44318e-05
207 *106:207 *267:28 0.000284626
208 *106:207 *299:32 0.000572753
209 *106:207 *380:12 8.46829e-05
210 *106:213 *1147:A0 0.000315165
211 *106:213 *1150:S0 0.000317082
212 *106:213 *273:10 0
213 *106:213 *283:8 0.000128868
214 *1354:CLK *106:123 0.000276211
215 *1363:CLK *1190:A1 3.69047e-06
216 *1386:CLK *106:203 0
217 *1386:CLK *106:207 0
218 *1402:CLK *1268:A1 0
219 *1402:CLK *106:165 0
220 *1408:CLK *1230:A1 0
221 *1419:CLK *1190:A1 0
222 *1426:CLK *1295:A1 0
223 *1434:CLK *1286:A1 0.000185643
224 *1450:CLK *106:165 1.92789e-05
225 *1647:CLK *106:26 5.52302e-05
226 *1647:RESET_B *106:6 4.96155e-05
227 *1658:CLK *106:26 0
228 *1673:CLK *106:26 7.77751e-05
229 *1673:RESET_B *106:26 2.29097e-05
230 *1682:CLK *106:26 0
231 *2:79 *106:94 0
232 *2:670 *106:26 6.06709e-05
233 *18:13 *106:113 0
234 *18:13 *106:115 9.50387e-05
235 *22:5 *106:113 2.46553e-05
236 *26:5 *106:26 0
237 *34:9 *106:26 0
238 *37:9 *106:113 0.000326473
239 *79:29 *106:36 0.000393204
240 *79:37 *106:36 0.000117621
241 *79:37 *106:57 0.000350763
242 *79:43 *1277:A1 2.88018e-06
243 *79:43 *106:57 3.73591e-06
244 *79:49 *1277:A1 0.000157311
245 *81:69 *106:115 0
246 *81:84 *106:115 0
247 *85:139 *1295:A1 3.9883e-05
248 *87:43 *106:180 0.000192577
249 *87:49 *106:180 0.000260495
250 *90:10 *106:165 5.39629e-06
251 *90:23 *106:165 0.000191699
252 *94:18 *106:115 0
253 *98:16 *1322:A0 3.97657e-05
254 *98:16 *106:123 5.94896e-06
255 *104:82 *106:115 6.87834e-06
256 *105:221 *106:36 0
*RES
1 *1647:Q *106:6 12.3198 
2 *106:6 *106:26 41.5249 
3 *106:26 *106:36 22.2031 
4 *106:36 *1179:A1 9.3 
5 *106:36 *106:57 20.7575 
6 *106:57 *1277:A1 14.5971 
7 *106:57 *106:70 13.3812 
8 *106:70 *1230:A1 17.3198 
9 *106:70 *1259:A1 10.6119 
10 *106:6 *106:94 12.7129 
11 *106:94 *1573:A 12.3198 
12 *106:94 *106:113 28.0026 
13 *106:113 *106:115 50.4582 
14 *106:115 *106:117 6.90598 
15 *106:117 *106:123 12.0743 
16 *106:123 *1322:A0 12.9139 
17 *106:123 *106:134 4.5 
18 *106:134 *1268:A1 21.8693 
19 *106:134 *106:165 31.2576 
20 *106:165 *1201:A0 9.3 
21 *106:165 *106:180 23.505 
22 *106:180 *106:186 15.1931 
23 *106:186 *1295:A1 25.9783 
24 *106:186 *106:203 5.81189 
25 *106:203 *106:207 12.7228 
26 *106:207 *106:213 10.9357 
27 *106:213 *106:215 4.5 
28 *106:215 *1304:A1 9.3 
29 *106:215 *1286:A1 24.8694 
30 *106:213 *1190:A1 22.5129 
31 *106:207 *1220:A0 9.3 
32 *106:203 *1250:A1 9.3 
33 *106:180 *1313:A1 9.3 
34 *106:117 *1211:A0 20.2357 
35 *106:115 *1240:A0 13.8 
*END

*D_NET *107 0.0263869
*CONN
*I *1578:A I *D sky130_fd_sc_hd__nor2_1
*I *1269:A1 I *D sky130_fd_sc_hd__mux2_1
*I *1323:A0 I *D sky130_fd_sc_hd__mux2_1
*I *1202:A0 I *D sky130_fd_sc_hd__mux2_1
*I *1314:A1 I *D sky130_fd_sc_hd__mux2_1
*I *1296:A1 I *D sky130_fd_sc_hd__mux2_1
*I *1251:A1 I *D sky130_fd_sc_hd__mux2_1
*I *1260:A1 I *D sky130_fd_sc_hd__mux2_1
*I *1278:A1 I *D sky130_fd_sc_hd__mux2_1
*I *1180:A1 I *D sky130_fd_sc_hd__mux2_1
*I *1231:A1 I *D sky130_fd_sc_hd__mux2_1
*I *1221:A0 I *D sky130_fd_sc_hd__mux2_1
*I *1191:A1 I *D sky130_fd_sc_hd__mux2_1
*I *1287:A1 I *D sky130_fd_sc_hd__mux2_1
*I *1305:A1 I *D sky130_fd_sc_hd__mux2_1
*I *1212:A0 I *D sky130_fd_sc_hd__mux2_1
*I *1241:A0 I *D sky130_fd_sc_hd__mux2_1
*I *1648:Q O *D sky130_fd_sc_hd__dfrtp_1
*CAP
1 *1578:A 0.000286489
2 *1269:A1 2.29648e-05
3 *1323:A0 0
4 *1202:A0 0
5 *1314:A1 0
6 *1296:A1 0
7 *1251:A1 3.05745e-05
8 *1260:A1 0.000243402
9 *1278:A1 9.99824e-05
10 *1180:A1 0.000142032
11 *1231:A1 0.000109651
12 *1221:A0 6.41814e-05
13 *1191:A1 2.86992e-05
14 *1287:A1 2.23854e-05
15 *1305:A1 0.000233304
16 *1212:A0 0.000127954
17 *1241:A0 0.000107256
18 *1648:Q 8.12434e-05
19 *107:178 0.00038165
20 *107:165 0.000329401
21 *107:148 0.000834858
22 *107:135 0.000798317
23 *107:104 0.000592624
24 *107:98 0.000510757
25 *107:96 0.00107821
26 *107:80 0.000915138
27 *107:72 0.000295344
28 *107:62 0.000557149
29 *107:52 0.000747545
30 *107:50 0.000546309
31 *107:24 0.00051854
32 *107:18 0.000631103
33 *107:14 0.0012408
34 *107:8 0.00140787
35 *1180:A1 *1180:A0 5.67246e-05
36 *1180:A1 *1180:S 3.69697e-05
37 *1180:A1 *110:216 9.25014e-06
38 *1180:A1 *110:230 3.67257e-05
39 *1180:A1 *111:197 9.71197e-05
40 *1180:A1 *261:14 0
41 *1191:A1 *1191:A0 9.90431e-05
42 *1191:A1 *269:16 0.000140933
43 *1191:A1 *305:22 2.14658e-05
44 *1212:A0 *1151:A1 4.00276e-06
45 *1212:A0 *1212:A1 0.000229456
46 *1212:A0 *1241:S 0
47 *1212:A0 *1379:D 0
48 *1212:A0 *373:6 2.88018e-06
49 *1221:A0 *1221:A1 5.52238e-05
50 *1221:A0 *278:20 0.000227532
51 *1221:A0 *299:32 2.44318e-05
52 *1231:A1 *1170:S0 4.58194e-05
53 *1231:A1 *1231:A0 0.000153047
54 *1231:A1 *257:10 0.000154762
55 *1231:A1 *308:12 2.72887e-05
56 *1241:A0 *1241:A1 0.000205264
57 *1241:A0 *1241:S 0
58 *1241:A0 *108:16 9.59415e-05
59 *1251:A1 *1251:A0 5.52238e-05
60 *1251:A1 *1251:S 5.33005e-05
61 *1251:A1 *269:16 2.87555e-06
62 *1251:A1 *445:116 1.39841e-05
63 *1260:A1 *1152:A1 0.00028166
64 *1260:A1 *1260:A0 0.000331448
65 *1260:A1 *1260:S 1.02504e-05
66 *1260:A1 *1278:A0 0
67 *1260:A1 *212:14 0.000315779
68 *1260:A1 *261:14 0
69 *1269:A1 *307:109 5.52302e-05
70 *1278:A1 *1278:S 0.000102207
71 *1278:A1 *212:14 4.87953e-05
72 *1278:A1 *308:12 0
73 *1305:A1 *1149:A3 0.000136039
74 *1305:A1 *267:28 0
75 *1305:A1 *273:10 8.48705e-05
76 *1305:A1 *283:8 9.11365e-06
77 *1305:A1 *311:16 0.000125864
78 *1305:A1 *311:18 1.40415e-05
79 *1578:A *1577:C 8.02709e-05
80 *1578:A *1600:A2 0.000229373
81 *1578:A *1634:S 0
82 *1578:A *1683:D 0
83 *1578:A *1686:D 5.52302e-05
84 *1578:A *111:164 9.33978e-07
85 *107:8 *108:10 6.95695e-05
86 *107:14 *1163:A0 0
87 *107:14 *1163:A1 0
88 *107:14 *1214:A1 0
89 *107:14 *1448:D 9.9486e-05
90 *107:14 *1670:D 0
91 *107:14 *108:10 0.000395669
92 *107:14 *442:58 2.39876e-05
93 *107:14 *444:59 0.000330239
94 *107:18 *1269:A0 0.000148277
95 *107:18 *1403:D 0.000264137
96 *107:18 *444:59 0
97 *107:24 *1151:A1 3.80953e-06
98 *107:24 *1151:S0 9.22054e-05
99 *107:24 *1269:A0 1.88866e-05
100 *107:24 *1323:A1 9.33978e-07
101 *107:24 *1379:D 0
102 *107:24 *1403:D 0.000223592
103 *107:24 *114:14 0.000306317
104 *107:24 *114:18 1.76135e-05
105 *107:24 *313:37 0
106 *107:24 *397:12 7.33786e-06
107 *107:50 *1323:S 2.89114e-05
108 *107:50 *270:24 9.58658e-05
109 *107:52 *1202:A1 4.18895e-05
110 *107:52 *270:24 0
111 *107:62 *1153:A0 0.000230475
112 *107:62 *1153:S0 3.51442e-05
113 *107:62 *1154:A1 5.76121e-05
114 *107:62 *1154:S0 0
115 *107:62 *1202:A1 0.000142856
116 *107:62 *1314:A0 0.000314414
117 *107:62 *271:28 5.66551e-05
118 *107:62 *307:100 8.27184e-06
119 *107:62 *444:520 4.88637e-05
120 *107:62 *445:116 7.31177e-05
121 *107:72 *1296:A0 5.52238e-05
122 *107:72 *1314:A0 5.52302e-05
123 *107:72 *1443:D 5.33005e-05
124 *107:72 *307:22 6.4216e-05
125 *107:72 *445:116 0.000122354
126 *107:80 *1296:A0 9.1894e-05
127 *107:80 *1296:S 1.39841e-05
128 *107:80 *1427:D 0
129 *107:80 *269:16 3.17163e-05
130 *107:80 *445:116 3.67257e-05
131 *107:96 *1162:A0 0
132 *107:96 *1162:A1 0
133 *107:96 *1162:A2 0.000154737
134 *107:96 *1162:S1 5.39629e-06
135 *107:96 *1164:S0 6.23129e-05
136 *107:96 *1296:S 0
137 *107:96 *1349:D 0.000372115
138 *107:96 *1389:D 4.63595e-05
139 *107:96 *1429:D 1.64343e-05
140 *107:96 *1445:D 0
141 *107:96 *269:16 2.17375e-05
142 *107:96 *431:10 3.14163e-05
143 *107:96 *445:116 0.000283487
144 *107:98 *1221:A1 0
145 *107:98 *1339:D 0
146 *107:98 *1429:D 3.34295e-05
147 *107:98 *261:14 7.54646e-05
148 *107:104 *1149:A3 0.000170689
149 *107:104 *1221:A1 0
150 *107:104 *261:14 0.000137544
151 *107:104 *305:22 0.000325596
152 *107:104 *309:101 0.000225616
153 *107:104 *311:16 0.000217552
154 *107:135 *1221:A1 0
155 *107:135 *1339:D 0
156 *107:135 *1429:D 0.000279953
157 *107:135 *261:14 2.78729e-05
158 *107:148 *1218:A1 4.56498e-05
159 *107:148 *1227:A 6.48447e-05
160 *107:148 *1331:D 8.32171e-05
161 *107:148 *1432:D 0.000198748
162 *107:148 *261:14 0.000229773
163 *107:148 *299:14 0
164 *107:148 *299:20 0
165 *107:148 *301:14 0.000155476
166 *107:148 *306:23 8.58301e-05
167 *107:148 *378:14 5.62469e-05
168 *107:148 *442:98 0.000203557
169 *107:148 *442:122 0.000675449
170 *107:165 *1331:D 3.28188e-05
171 *107:165 *308:12 9.52945e-05
172 *107:178 *1152:A0 4.98055e-06
173 *107:178 *1180:A0 2.8266e-06
174 *107:178 *212:14 3.17067e-05
175 *107:178 *261:14 0
176 *1089:A0 *1212:A0 0
177 *1089:A0 *1241:A0 5.52302e-05
178 *1089:A0 *107:24 0
179 *1190:A1 *1305:A1 7.07484e-05
180 *1331:CLK *1231:A1 8.25843e-06
181 *1331:CLK *1278:A1 0.000399841
182 *1331:CLK *107:165 0.000109255
183 *1349:CLK *107:96 9.90431e-05
184 *1379:CLK *107:50 5.09744e-05
185 *1381:CLK *107:14 0
186 *1381:CLK *107:18 0
187 *1432:CLK *107:148 0.000132442
188 *2:189 *107:8 9.30307e-05
189 *2:191 *107:8 1.10866e-05
190 *2:191 *107:14 5.45988e-05
191 *2:201 *107:14 1.01912e-05
192 *87:6 *1221:A0 0
193 *87:6 *107:96 8.46507e-06
194 *87:15 *107:96 1.3916e-05
195 *87:21 *107:96 0.000217834
196 *87:39 *107:96 5.22045e-05
197 *91:90 *107:50 1.74795e-05
198 *91:90 *107:52 5.52302e-05
199 *96:16 *107:24 0
200 *97:12 *1269:A1 0
201 *106:186 *107:104 9.60939e-05
*RES
1 *1648:Q *107:8 17.3396 
2 *107:8 *107:14 33.4903 
3 *107:14 *107:18 7.37627 
4 *107:18 *107:24 14.7476 
5 *107:24 *1241:A0 23.4238 
6 *107:24 *1212:A0 13.4584 
7 *107:18 *107:50 10.0941 
8 *107:50 *107:52 9.28222 
9 *107:52 *107:62 23.9506 
10 *107:62 *107:72 7.40103 
11 *107:72 *107:80 13.0099 
12 *107:80 *107:96 29.7477 
13 *107:96 *107:98 4.38121 
14 *107:98 *107:104 21.406 
15 *107:104 *1305:A1 28.003 
16 *107:104 *1287:A1 9.89406 
17 *107:98 *1191:A1 15.6812 
18 *107:96 *107:135 6.06439 
19 *107:135 *1221:A0 16.8198 
20 *107:135 *107:148 30.3417 
21 *107:148 *1231:A1 22.8792 
22 *107:148 *107:165 10.3664 
23 *107:165 *1180:A1 18.6515 
24 *107:165 *107:178 1.43565 
25 *107:178 *1278:A1 19.0971 
26 *107:178 *1260:A1 27.0179 
27 *107:80 *1251:A1 10.6119 
28 *107:72 *1296:A1 9.3 
29 *107:62 *1314:A1 9.3 
30 *107:52 *1202:A0 9.3 
31 *107:50 *1323:A0 9.3 
32 *107:14 *1269:A1 14.5426 
33 *107:8 *1578:A 22.9585 
*END

*D_NET *108 0.0371431
*CONN
*I *1582:A I *D sky130_fd_sc_hd__nor2_1
*I *1261:A1 I *D sky130_fd_sc_hd__mux2_1
*I *1232:A1 I *D sky130_fd_sc_hd__mux2_1
*I *1279:A1 I *D sky130_fd_sc_hd__mux2_1
*I *1181:A1 I *D sky130_fd_sc_hd__mux2_1
*I *1213:A0 I *D sky130_fd_sc_hd__mux2_1
*I *1242:A0 I *D sky130_fd_sc_hd__mux2_1
*I *1270:A1 I *D sky130_fd_sc_hd__mux2_1
*I *1324:A0 I *D sky130_fd_sc_hd__mux2_1
*I *1203:A0 I *D sky130_fd_sc_hd__mux2_1
*I *1315:A1 I *D sky130_fd_sc_hd__mux2_1
*I *1252:A1 I *D sky130_fd_sc_hd__mux2_1
*I *1297:A1 I *D sky130_fd_sc_hd__mux2_1
*I *1222:A0 I *D sky130_fd_sc_hd__mux2_1
*I *1192:A1 I *D sky130_fd_sc_hd__mux2_1
*I *1288:A1 I *D sky130_fd_sc_hd__mux2_1
*I *1306:A1 I *D sky130_fd_sc_hd__mux2_1
*I *1649:Q O *D sky130_fd_sc_hd__dfrtp_1
*CAP
1 *1582:A 0.000126901
2 *1261:A1 0
3 *1232:A1 0
4 *1279:A1 0.000204999
5 *1181:A1 5.88539e-05
6 *1213:A0 8.66838e-05
7 *1242:A0 0.000341885
8 *1270:A1 0.000119801
9 *1324:A0 0
10 *1203:A0 0
11 *1315:A1 0.000165383
12 *1252:A1 2.23854e-05
13 *1297:A1 0
14 *1222:A0 0
15 *1192:A1 0
16 *1288:A1 1.54491e-05
17 *1306:A1 0.000404058
18 *1649:Q 8.65888e-05
19 *108:223 0.000590607
20 *108:211 0.000516509
21 *108:198 0.000265361
22 *108:194 0.00186107
23 *108:192 0.00212799
24 *108:180 0.000634016
25 *108:152 0.000493408
26 *108:74 0.000646545
27 *108:70 0.000712605
28 *108:68 0.00126862
29 *108:58 0.000980847
30 *108:54 0.00037047
31 *108:48 0.000671145
32 *108:40 0.000950127
33 *108:32 0.000762924
34 *108:20 0.000398996
35 *108:16 0.00057911
36 *108:10 0.00173845
37 *108:8 0.00158628
38 *1181:A1 *1264:S 0
39 *1181:A1 *1369:D 0
40 *1181:A1 *265:8 7.40153e-05
41 *1242:A0 *1158:A0 0.00018037
42 *1242:A0 *1158:A1 0.000320048
43 *1242:A0 *1241:S 0
44 *1242:A0 *1380:D 5.31541e-05
45 *1242:A0 *444:63 0
46 *1242:A0 *444:67 0
47 *1270:A1 *1404:D 9.02251e-05
48 *1270:A1 *114:26 0
49 *1270:A1 *114:226 6.81335e-05
50 *1279:A1 *1232:A0 0.000352212
51 *1279:A1 *1279:A0 3.68381e-05
52 *1279:A1 *1279:S 5.52238e-05
53 *1279:A1 *301:62 0.000128875
54 *1279:A1 *308:46 0.00024406
55 *1288:A1 *1288:A0 5.71472e-05
56 *1288:A1 *1288:S 1.39841e-05
57 *1306:A1 *1288:A0 1.03968e-05
58 *1306:A1 *1306:A0 5.52302e-05
59 *1306:A1 *1309:S 0.000122081
60 *1306:A1 *1436:D 5.71472e-05
61 *1306:A1 *309:61 0.000109826
62 *1306:A1 *311:56 4.87953e-05
63 *1306:A1 *393:8 0
64 *1315:A1 *1159:S1 1.13406e-05
65 *1315:A1 *1315:A0 0
66 *1315:A1 *1315:S 0.000102197
67 *1315:A1 *1444:D 2.99775e-05
68 *1315:A1 *296:26 0
69 *1315:A1 *443:88 1.40415e-05
70 *1582:A *1585:B1 0.00014183
71 *1582:A *581:83 1.97695e-05
72 *1582:A *630:12 6.89831e-05
73 *108:8 *1649:D 4.88104e-05
74 *108:8 *626:72 0
75 *108:10 *1238:S 0
76 *108:10 *1270:S 0.000346115
77 *108:10 *1320:S 6.27272e-06
78 *108:10 *1448:D 1.99492e-05
79 *108:10 *1559:A2 0
80 *108:10 *1621:A1 0
81 *108:10 *114:14 0.000318164
82 *108:10 *442:58 3.5297e-05
83 *108:10 *444:59 0.000326738
84 *108:10 *580:105 0.000366141
85 *108:10 *580:109 5.41794e-05
86 *108:10 *626:34 0.000409747
87 *108:10 *634:10 0
88 *108:10 *652:14 0
89 *108:16 *1270:S 0.000313167
90 *108:16 *114:14 0.000125986
91 *108:16 *397:12 0.000275087
92 *108:16 *444:61 2.81691e-05
93 *108:16 *444:63 2.31886e-05
94 *108:32 *1158:S0 3.34366e-05
95 *108:32 *1159:A0 2.60984e-05
96 *108:32 *1324:A1 4.88637e-05
97 *108:32 *1404:D 0.000119689
98 *108:32 *313:39 0.00010096
99 *108:40 *1159:A0 0.000217529
100 *108:40 *1203:A1 4.38128e-05
101 *108:40 *1203:S 5.33005e-05
102 *108:40 *1268:A0 4.17509e-05
103 *108:40 *1322:S 0.000484511
104 *108:40 *1402:D 0.000133331
105 *108:40 *296:62 0
106 *108:40 *307:34 0
107 *108:40 *313:39 0.000273565
108 *108:40 *404:10 0.000144762
109 *108:48 *1157:A0 0.000274288
110 *108:48 *1159:A0 5.76121e-05
111 *108:48 *1159:A1 0
112 *108:48 *1203:A1 9.90431e-05
113 *108:48 *1252:A0 6.70991e-05
114 *108:48 *1315:A0 3.8361e-06
115 *108:48 *1348:D 0
116 *108:48 *273:26 4.87854e-05
117 *108:48 *350:8 2.8266e-06
118 *108:48 *443:92 0.000255766
119 *108:54 *1157:A3 0
120 *108:54 *1159:A2 2.95726e-05
121 *108:54 *1252:A0 9.51135e-05
122 *108:54 *1444:D 1.07007e-05
123 *108:54 *273:26 0
124 *108:58 *1157:A2 0
125 *108:58 *1157:S0 0
126 *108:58 *1159:A2 9.03136e-05
127 *108:58 *1252:A0 2.59355e-05
128 *108:58 *1297:A0 4.13496e-05
129 *108:58 *273:26 0
130 *108:58 *310:24 1.40306e-05
131 *108:68 *1146:A2 6.28241e-05
132 *108:68 *1159:A2 0.000714686
133 *108:68 *1222:S 5.33334e-05
134 *108:68 *1295:S 9.33978e-07
135 *108:68 *1297:A0 5.71472e-05
136 *108:68 *1386:D 3.05288e-05
137 *108:68 *1426:D 0.000191471
138 *108:68 *273:26 0
139 *108:68 *274:18 0
140 *108:68 *310:24 9.01258e-06
141 *108:70 *1192:A0 0
142 *108:70 *1362:D 0
143 *108:70 *1436:D 0.000234761
144 *108:70 *273:26 0
145 *108:70 *390:10 6.28241e-05
146 *108:70 *444:206 4.57932e-05
147 *108:74 *1192:A0 0.000155484
148 *108:74 *1288:A0 0
149 *108:74 *1340:D 0
150 *108:74 *1420:D 6.21186e-05
151 *108:74 *293:38 4.80729e-05
152 *108:74 *293:42 0.000551363
153 *108:74 *309:47 0
154 *108:74 *309:61 7.29667e-05
155 *108:180 *1585:B1 0
156 *108:180 *1627:A1 3.69047e-06
157 *108:180 *1649:D 0.000438788
158 *108:180 *1676:D 1.15281e-05
159 *108:180 *580:105 0.000128868
160 *108:180 *630:12 0.000139907
161 *108:192 *1649:D 7.67762e-05
162 *108:194 *1140:A3 0
163 *108:194 *1140:S1 0
164 *108:194 *1260:S 0
165 *108:194 *1276:A0 0
166 *108:194 *1276:S 0.000188345
167 *108:194 *1329:D 5.66384e-05
168 *108:194 *1393:D 1.92905e-05
169 *108:194 *1575:A2 1.32552e-05
170 *108:194 *1575:A3 0.000746382
171 *108:194 *1658:D 0.000344943
172 *108:194 *1659:D 0
173 *108:194 *261:12 0
174 *108:194 *306:31 0
175 *108:194 *306:37 3.13884e-05
176 *108:194 *306:112 0
177 *108:194 *323:10 6.78055e-06
178 *108:194 *581:83 0
179 *108:194 *651:14 3.61629e-06
180 *108:198 *1369:D 0
181 *108:198 *265:8 8.0399e-05
182 *108:211 *290:42 0
183 *108:211 *306:37 0.000298881
184 *108:211 *306:45 5.52302e-05
185 *108:211 *444:328 2.40603e-05
186 *108:223 *1232:S 5.33005e-05
187 *108:223 *1276:S 8.50152e-05
188 *108:223 *1330:D 0.000188535
189 *108:223 *277:10 0.000122708
190 *108:223 *290:42 0.000135699
191 *108:223 *301:70 5.52302e-05
192 *108:223 *306:45 0
193 *108:223 *308:46 0
194 *1091:A0 *1213:A0 0.000261858
195 *1091:A0 *108:20 0.000395866
196 *1091:A0 *108:152 0.000173328
197 *1241:A0 *108:16 9.59415e-05
198 *1329:CLK *108:194 1.92789e-05
199 *1330:CLK *1279:A1 0.000190914
200 *1330:CLK *108:223 0.000357054
201 *1342:CLK *1306:A1 0
202 *1362:CLK *108:70 0
203 *1369:CLK *108:194 0
204 *1380:CLK *108:32 0.000260502
205 *1380:CLK *108:40 0
206 *1386:CLK *108:68 0
207 *1404:CLK *108:32 0
208 *1404:CLK *108:40 0
209 *1426:CLK *108:68 0
210 *1436:CLK *108:70 5.01464e-05
211 *1621:A0 *108:10 0.000111872
212 *1621:A0 *108:180 6.49413e-05
213 *1637:A0 *1582:A 0.00020112
214 *1637:A0 *108:192 0.000103974
215 *1649:RESET_B *108:192 0.000177139
216 *1652:RESET_B *108:10 8.48705e-05
217 *1658:RESET_B *108:194 7.78179e-05
218 *1659:CLK *108:194 0
219 *1659:RESET_B *108:192 7.43578e-06
220 *1659:RESET_B *108:194 2.55516e-05
221 *1666:CLK *108:192 0.000143035
222 *1666:CLK *108:194 6.05161e-06
223 *2:189 *108:10 0
224 *2:201 *108:10 0.000120678
225 *2:623 *108:180 1.39726e-05
226 *22:5 *108:192 3.2006e-05
227 *24:9 *108:180 1.15172e-05
228 *35:7 *1582:A 2.86826e-05
229 *78:10 *1306:A1 0
230 *78:10 *108:74 2.39779e-05
231 *78:29 *108:70 2.79421e-05
232 *81:10 *108:10 0
233 *81:20 *108:10 0
234 *83:47 *1582:A 4.72917e-05
235 *83:49 *1582:A 2.89016e-05
236 *83:75 *1582:A 0
237 *83:75 *108:192 0
238 *91:21 *1270:A1 5.67912e-05
239 *91:21 *108:32 2.24541e-05
240 *91:23 *108:32 5.58941e-05
241 *92:97 *1279:A1 0.000402707
242 *94:18 *108:10 0
243 *104:55 *108:10 0.000385888
244 *106:26 *108:194 0
245 *106:36 *108:194 0
246 *106:57 *108:223 9.33978e-07
247 *106:113 *108:192 8.15095e-05
248 *106:113 *108:194 7.65689e-05
249 *107:8 *108:10 6.95695e-05
250 *107:14 *108:10 0.000395669
*RES
1 *1649:Q *108:8 16.2505 
2 *108:8 *108:10 53.5522 
3 *108:10 *108:16 22.3095 
4 *108:16 *108:20 9.79706 
5 *108:20 *108:32 12.3094 
6 *108:32 *108:40 23.1684 
7 *108:40 *108:48 18.5719 
8 *108:48 *108:54 9.19062 
9 *108:54 *108:58 5.89112 
10 *108:58 *108:68 25.0496 
11 *108:68 *108:70 13.8367 
12 *108:70 *108:74 16.4555 
13 *108:74 *1306:A1 26.0773 
14 *108:74 *1288:A1 15.1119 
15 *108:70 *1192:A1 9.3 
16 *108:68 *1222:A0 9.3 
17 *108:58 *1297:A1 9.3 
18 *108:54 *1252:A1 9.89406 
19 *108:48 *1315:A1 19.0352 
20 *108:40 *1203:A0 9.3 
21 *108:32 *1324:A0 9.3 
22 *108:20 *1270:A1 19.4312 
23 *108:16 *108:152 2.45051 
24 *108:152 *1242:A0 29.6367 
25 *108:152 *1213:A0 12.8891 
26 *108:8 *108:180 17.1436 
27 *108:180 *108:192 26.0743 
28 *108:192 *108:194 53.6884 
29 *108:194 *108:198 7.19803 
30 *108:198 *1181:A1 16.0772 
31 *108:198 *108:211 9.22775 
32 *108:211 *108:223 24.0001 
33 *108:223 *1279:A1 32.6813 
34 *108:223 *1232:A1 9.3 
35 *108:211 *1261:A1 9.3 
36 *108:180 *1582:A 20.5575 
*END

*D_NET *109 0.0370236
*CONN
*I *1214:A0 I *D sky130_fd_sc_hd__mux2_1
*I *1243:A0 I *D sky130_fd_sc_hd__mux2_1
*I *1271:A1 I *D sky130_fd_sc_hd__mux2_1
*I *1325:A0 I *D sky130_fd_sc_hd__mux2_1
*I *1204:A0 I *D sky130_fd_sc_hd__mux2_1
*I *1223:A0 I *D sky130_fd_sc_hd__mux2_1
*I *1193:A1 I *D sky130_fd_sc_hd__mux2_1
*I *1307:A1 I *D sky130_fd_sc_hd__mux2_1
*I *1289:A1 I *D sky130_fd_sc_hd__mux2_1
*I *1298:A1 I *D sky130_fd_sc_hd__mux2_1
*I *1316:A1 I *D sky130_fd_sc_hd__mux2_1
*I *1253:A1 I *D sky130_fd_sc_hd__mux2_1
*I *1588:A I *D sky130_fd_sc_hd__nor2_1
*I *1182:A1 I *D sky130_fd_sc_hd__mux2_1
*I *1262:A1 I *D sky130_fd_sc_hd__mux2_1
*I *1280:A1 I *D sky130_fd_sc_hd__mux2_1
*I *1233:A1 I *D sky130_fd_sc_hd__mux2_1
*I *1650:Q O *D sky130_fd_sc_hd__dfrtp_1
*CAP
1 *1214:A0 1.91064e-05
2 *1243:A0 7.03888e-05
3 *1271:A1 0
4 *1325:A0 0
5 *1204:A0 0
6 *1223:A0 7.80457e-05
7 *1193:A1 0.000197515
8 *1307:A1 0.000215411
9 *1289:A1 0.000206466
10 *1298:A1 0.000105725
11 *1316:A1 0
12 *1253:A1 0.000135973
13 *1588:A 2.33023e-05
14 *1182:A1 8.87362e-05
15 *1262:A1 1.99167e-05
16 *1280:A1 0.000229198
17 *1233:A1 4.21525e-05
18 *1650:Q 0
19 *109:196 0.000520475
20 *109:194 0.00052252
21 *109:190 0.00103616
22 *109:171 0.00102393
23 *109:151 0.000306126
24 *109:143 0.000494199
25 *109:139 0.000357217
26 *109:131 0.000712102
27 *109:117 0.000634229
28 *109:115 0.000725815
29 *109:107 0.00156826
30 *109:103 0.00124709
31 *109:59 0.000332688
32 *109:48 0.000382759
33 *109:44 0.000766758
34 *109:34 0.00166568
35 *109:14 0.00153803
36 *109:4 0.000481606
37 *1182:A1 *1160:A0 6.39901e-05
38 *1182:A1 *1182:A0 7.40249e-05
39 *1182:A1 *1182:S 0.000253337
40 *1182:A1 *1228:S 0
41 *1193:A1 *1161:S0 0
42 *1193:A1 *1167:S1 0.00017012
43 *1193:A1 *1193:A0 1.39841e-05
44 *1193:A1 *293:14 9.76491e-05
45 *1193:A1 *293:32 2.89114e-05
46 *1193:A1 *368:10 0
47 *1214:A0 *491:28 1.58163e-05
48 *1223:A0 *1161:A0 3.06878e-06
49 *1223:A0 *1223:A1 6.05161e-06
50 *1233:A1 *1233:A0 2.72859e-05
51 *1233:A1 *1233:S 3.69047e-06
52 *1243:A0 *303:26 5.33005e-05
53 *1243:A0 *307:109 2.42516e-05
54 *1253:A1 *1253:A0 0.00014183
55 *1253:A1 *1316:A0 5.52302e-05
56 *1253:A1 *269:16 0.000129554
57 *1253:A1 *305:16 0.000341856
58 *1262:A1 *1233:A0 5.33433e-05
59 *1262:A1 *1397:D 9.90431e-05
60 *1280:A1 *1413:D 0
61 *1280:A1 *301:97 0
62 *1289:A1 *283:8 0
63 *1289:A1 *311:34 0.00045178
64 *1289:A1 *391:10 0.000157899
65 *1289:A1 *444:216 0.000102581
66 *1298:A1 *1298:A0 0.000312215
67 *1298:A1 *1298:S 6.07453e-05
68 *1298:A1 *1445:D 5.92278e-05
69 *1298:A1 *278:20 8.25843e-06
70 *1307:A1 *1161:A2 5.33005e-05
71 *1307:A1 *1161:S1 5.52238e-05
72 *1307:A1 *1307:A0 0.000229181
73 *1307:A1 *311:34 0
74 *1588:A *1588:B 1.19011e-05
75 *1588:A *1590:A1 6.80108e-05
76 *1588:A *1590:B1 2.11419e-05
77 *109:14 *1588:B 2.24813e-05
78 *109:14 *1589:B2 1.58163e-05
79 *109:14 *622:14 0.000144789
80 *109:34 *1135:S0 0
81 *109:34 *1178:S 2.83248e-05
82 *109:34 *1257:A0 0.000229456
83 *109:34 *1257:S 0.000202117
84 *109:34 *1275:A0 3.61629e-06
85 *109:34 *1572:B 0
86 *109:34 *1587:C 0
87 *109:34 *1588:B 5.96243e-05
88 *109:34 *1601:A0 3.35205e-05
89 *109:34 *1636:A1 0
90 *109:34 *1677:D 6.98971e-05
91 *109:34 *1685:D 8.5872e-05
92 *109:34 *362:12 0.00010096
93 *109:34 *622:14 0.000112173
94 *109:34 *626:115 0.000468827
95 *109:44 *1160:A0 4.35131e-05
96 *109:44 *1160:S0 0
97 *109:44 *1182:S 8.32171e-05
98 *109:44 *1257:S 3.61629e-06
99 *109:44 *1275:A0 0.000113359
100 *109:44 *1275:S 2.22896e-05
101 *109:44 *1408:D 3.67142e-05
102 *109:44 *277:10 0.000154424
103 *109:44 *335:10 0
104 *109:48 *1160:A0 1.92789e-05
105 *109:48 *1228:S 0.000689234
106 *109:48 *1233:A0 7.49387e-06
107 *109:48 *1233:S 0.000285329
108 *109:48 *1262:A0 0.000247479
109 *109:59 *1233:A0 4.20528e-05
110 *109:59 *1397:D 0
111 *109:59 *1413:D 0
112 *109:103 *1589:B2 0.00023839
113 *109:103 *1620:A1 1.39726e-05
114 *109:107 *1579:C1 0.000207739
115 *109:107 *1598:A2 8.11728e-05
116 *109:107 *1617:A1 6.69273e-05
117 *109:107 *1670:D 0
118 *109:107 *111:12 0.000295851
119 *109:107 *111:164 0.000442792
120 *109:107 *303:14 0.000128161
121 *109:107 *580:289 5.58941e-05
122 *109:107 *581:77 0.000140442
123 *109:107 *588:37 0.000125736
124 *109:107 *602:30 0.000371984
125 *109:107 *626:42 0
126 *109:107 *626:58 0.000586837
127 *109:107 *630:12 4.22491e-05
128 *109:115 *1163:A3 0
129 *109:115 *1163:S0 0.000156815
130 *109:115 *1271:A0 0
131 *109:115 *1357:D 0.000286318
132 *109:115 *1381:D 5.98882e-05
133 *109:115 *111:12 0.000153032
134 *109:115 *298:38 0.000105696
135 *109:115 *442:74 0.000116654
136 *109:115 *491:28 6.28241e-05
137 *109:117 *1154:S1 3.15101e-05
138 *109:117 *1271:A0 0.00026737
139 *109:117 *307:109 6.62783e-05
140 *109:131 *1136:S1 0
141 *109:131 *1154:S1 7.85796e-05
142 *109:131 *1164:A0 0.00023686
143 *109:131 *1271:A0 5.71472e-05
144 *109:131 *1314:A0 2.8266e-06
145 *109:131 *1314:S 0.000115694
146 *109:131 *1325:A1 0.00061109
147 *109:131 *271:28 0.000347676
148 *109:131 *307:100 0.000107988
149 *109:131 *445:116 0
150 *109:139 *1164:A0 4.43256e-05
151 *109:139 *1164:A1 0
152 *109:139 *1296:S 2.05612e-05
153 *109:139 *296:97 2.89114e-05
154 *109:139 *296:114 0.000180805
155 *109:139 *307:20 0.000126439
156 *109:143 *1204:S 3.99614e-06
157 *109:143 *1296:S 8.40933e-05
158 *109:143 *439:10 9.41642e-05
159 *109:143 *443:68 0
160 *109:143 *443:80 0
161 *109:151 *1162:S0 0.000389004
162 *109:151 *1164:S0 5.70616e-05
163 *109:151 *312:16 0.000526695
164 *109:151 *312:26 9.25014e-06
165 *109:171 *1296:S 6.20492e-05
166 *109:171 *1445:D 0.000170379
167 *109:171 *278:20 9.18594e-05
168 *109:171 *443:80 1.76469e-05
169 *109:190 *1164:A3 0.000934033
170 *109:190 *1187:B 0
171 *109:190 *1223:A1 3.06878e-06
172 *109:190 *1223:S 0.000183396
173 *109:190 *1298:A0 3.17148e-05
174 *109:190 *293:6 8.10875e-05
175 *109:190 *293:8 0.000193353
176 *109:190 *293:14 0.000283594
177 *109:190 *310:12 4.89268e-05
178 *109:190 *383:6 0
179 *109:194 *1161:A1 0
180 *109:194 *1365:D 1.36635e-05
181 *109:194 *293:14 4.65385e-05
182 *109:196 *1161:S0 0
183 *109:196 *1167:S1 0.000230158
184 *109:196 *391:10 5.66157e-05
185 *109:196 *444:216 2.24646e-05
186 *1125:A *1289:A1 3.92645e-05
187 *1228:A1 *109:44 0
188 *1257:A1 *109:34 5.52302e-05
189 *1275:A1 *109:44 0
190 *1368:CLK *1182:A1 2.89016e-05
191 *1432:CLK *109:190 0.000182624
192 *1617:A0 *109:107 1.00375e-05
193 *1636:A0 *109:34 0
194 *1637:A0 *109:107 0
195 *1649:CLK *109:107 0.000130583
196 *1684:CLK *109:107 0.000131481
197 *1685:CLK *109:34 0.000443174
198 *1685:RESET_B *109:34 0.000220865
199 *9:11 *1588:A 2.22043e-05
200 *9:11 *109:14 0.00052331
201 *26:5 *109:34 4.00121e-05
202 *30:13 *109:14 0.000259203
203 *34:9 *109:14 0.000259203
204 *35:7 *109:107 0
205 *79:73 *1280:A1 0
206 *79:137 *109:44 0.000188586
207 *79:150 *109:44 0.000487467
208 *81:28 *109:115 0.00012782
209 *81:40 *109:115 0
210 *81:69 *109:115 2.94694e-05
211 *81:88 *109:107 8.89289e-05
212 *83:55 *109:107 3.81736e-05
213 *83:75 *109:107 0.000266559
214 *86:31 *1307:A1 0
215 *87:15 *1298:A1 0
216 *87:88 *109:190 0
217 *97:12 *1243:A0 9.9471e-06
218 *97:12 *109:117 3.13884e-05
219 *99:14 *109:139 0.000274288
220 *104:66 *1214:A0 4.18895e-05
221 *104:66 *109:115 0.000183726
222 *104:94 *109:131 1.98839e-05
223 *105:194 *109:14 5.52238e-05
224 *105:194 *109:103 0.000718308
225 *105:200 *109:34 9.67711e-05
*RES
1 *1650:Q *109:4 9.3 
2 *109:4 *109:14 14.2389 
3 *109:14 *109:34 43.8066 
4 *109:34 *109:44 22.8664 
5 *109:44 *109:48 17.7674 
6 *109:48 *1233:A1 10.6119 
7 *109:48 *109:59 7.19803 
8 *109:59 *1280:A1 19.8644 
9 *109:59 *1262:A1 15.1119 
10 *109:44 *1182:A1 18.9238 
11 *109:14 *1588:A 18.4353 
12 *109:4 *109:103 14.3515 
13 *109:103 *109:107 48.4359 
14 *109:107 *109:115 30.1387 
15 *109:115 *109:117 5.86637 
16 *109:117 *109:131 29.8417 
17 *109:131 *109:139 18.2822 
18 *109:139 *109:143 4.18319 
19 *109:143 *109:151 19.0248 
20 *109:151 *1253:A1 16.3545 
21 *109:151 *1316:A1 9.3 
22 *109:143 *109:171 6.88122 
23 *109:171 *1298:A1 14.0277 
24 *109:171 *109:190 39.6685 
25 *109:190 *109:194 10.3664 
26 *109:194 *109:196 4.38121 
27 *109:196 *1289:A1 24.0723 
28 *109:196 *1307:A1 20.805 
29 *109:194 *1193:A1 20.508 
30 *109:190 *1223:A0 11.4782 
31 *109:139 *1204:A0 9.3 
32 *109:131 *1325:A0 9.3 
33 *109:117 *1271:A1 9.3 
34 *109:115 *1243:A0 11.1812 
35 *109:107 *1214:A0 10.0426 
*END

*D_NET *110 0.0348851
*CONN
*I *1594:A I *D sky130_fd_sc_hd__nor2_1
*I *1263:A1 I *D sky130_fd_sc_hd__mux2_1
*I *1234:A1 I *D sky130_fd_sc_hd__mux2_1
*I *1281:A1 I *D sky130_fd_sc_hd__mux2_1
*I *1183:A1 I *D sky130_fd_sc_hd__mux2_1
*I *1272:A1 I *D sky130_fd_sc_hd__mux2_1
*I *1215:A0 I *D sky130_fd_sc_hd__mux2_1
*I *1244:A0 I *D sky130_fd_sc_hd__mux2_1
*I *1326:A0 I *D sky130_fd_sc_hd__mux2_1
*I *1308:A1 I *D sky130_fd_sc_hd__mux2_1
*I *1254:A1 I *D sky130_fd_sc_hd__mux2_1
*I *1299:A1 I *D sky130_fd_sc_hd__mux2_1
*I *1205:A0 I *D sky130_fd_sc_hd__mux2_1
*I *1317:A1 I *D sky130_fd_sc_hd__mux2_1
*I *1224:A0 I *D sky130_fd_sc_hd__mux2_1
*I *1194:A1 I *D sky130_fd_sc_hd__mux2_1
*I *1290:A1 I *D sky130_fd_sc_hd__mux2_1
*I *1651:Q O *D sky130_fd_sc_hd__dfrtp_1
*CAP
1 *1594:A 0.000125124
2 *1263:A1 9.69234e-05
3 *1234:A1 0
4 *1281:A1 0.000168903
5 *1183:A1 0
6 *1272:A1 0
7 *1215:A0 0
8 *1244:A0 0.000490174
9 *1326:A0 0
10 *1308:A1 0.000119174
11 *1254:A1 0
12 *1299:A1 0.000142674
13 *1205:A0 0
14 *1317:A1 0.000322009
15 *1224:A0 0
16 *1194:A1 0.000347634
17 *1290:A1 0.000647739
18 *1651:Q 0
19 *110:241 0.000518156
20 *110:232 0.0003796
21 *110:230 0.000848933
22 *110:216 0.00135235
23 *110:157 0.000627605
24 *110:121 0.000142674
25 *110:97 0.000734479
26 *110:91 0.000612289
27 *110:46 0.00115637
28 *110:42 0.000289375
29 *110:40 0.000458815
30 *110:36 0.000963058
31 *110:30 0.00106649
32 *110:26 0.000601855
33 *110:20 0.000154099
34 *110:16 0.00186921
35 *110:14 0.00280562
36 *110:4 0.000473756
37 *1194:A1 *1189:S 0
38 *1194:A1 *1225:S 0
39 *1194:A1 *1308:A0 1.17396e-05
40 *1194:A1 *1417:D 0.000117175
41 *1194:A1 *299:49 0.000664422
42 *1194:A1 *392:10 0.00027338
43 *1194:A1 *444:168 5.33005e-05
44 *1244:A0 *1166:A0 0
45 *1244:A0 *1166:A3 0
46 *1244:A0 *1200:S 0
47 *1244:A0 *263:14 0.00011365
48 *1244:A0 *288:18 9.33978e-07
49 *1244:A0 *376:12 0
50 *1263:A1 *1167:A0 3.17067e-05
51 *1263:A1 *1183:A0 8.81278e-05
52 *1263:A1 *273:10 0
53 *1281:A1 *1234:S 4.25427e-05
54 *1281:A1 *1281:S 0
55 *1290:A1 *1165:A2 0.000184052
56 *1290:A1 *1171:A0 0
57 *1290:A1 *1171:A1 9.60939e-05
58 *1290:A1 *1171:A3 9.90431e-05
59 *1290:A1 *1171:S0 1.65558e-05
60 *1290:A1 *1171:S1 0.00029839
61 *1290:A1 *1225:S 7.10712e-05
62 *1290:A1 *1290:A0 6.05161e-06
63 *1290:A1 *1291:S 7.48744e-05
64 *1290:A1 *1366:D 0.000278574
65 *1290:A1 *1439:D 8.68489e-05
66 *1290:A1 *111:76 0
67 *1290:A1 *114:112 5.39361e-06
68 *1290:A1 *239:14 0.000134146
69 *1290:A1 *283:22 5.52238e-05
70 *1290:A1 *286:22 1.32552e-05
71 *1290:A1 *309:61 0.000193476
72 *1299:A1 *1168:A3 0
73 *1299:A1 *1254:A0 5.33005e-05
74 *1299:A1 *1254:S 0
75 *1299:A1 *1299:A0 0.000283512
76 *1299:A1 *1299:S 0.00027511
77 *1299:A1 *1430:D 3.14193e-05
78 *1308:A1 *1308:S 5.80706e-06
79 *1308:A1 *444:141 7.49062e-05
80 *1317:A1 *1205:A1 0.00014285
81 *1317:A1 *1205:S 0.000134184
82 *1317:A1 *1206:A0 5.52238e-05
83 *1317:A1 *1249:S 0
84 *1317:A1 *1317:S 0.000355341
85 *1317:A1 *432:12 0.000399401
86 *1594:A *1594:B 5.86603e-05
87 *1594:A *1595:B1 9.25014e-06
88 *1594:A *493:40 0
89 *1594:A *626:58 1.13406e-05
90 *110:14 *111:191 0.000199934
91 *110:14 *493:40 0
92 *110:14 *626:58 5.16473e-05
93 *110:16 *1136:A3 7.98175e-05
94 *110:16 *1136:S0 2.11419e-05
95 *110:16 *1136:S1 0
96 *110:16 *1159:A0 0
97 *110:16 *1200:S 0.000246064
98 *110:16 *1203:S 0.000194299
99 *110:16 *1237:C 0
100 *110:16 *1248:A0 0
101 *110:16 *1311:A0 0.000144023
102 *110:16 *1348:D 0
103 *110:16 *1440:D 0.000296581
104 *110:16 *1450:D 5.99125e-05
105 *110:16 *128:42 0
106 *110:16 *268:22 0.000132466
107 *110:16 *294:12 0
108 *110:16 *307:20 0
109 *110:16 *307:34 0.000148345
110 *110:16 *430:10 0
111 *110:20 *1144:A2 1.55953e-05
112 *110:20 *408:8 1.32552e-05
113 *110:26 *1144:A2 6.13757e-06
114 *110:26 *1406:D 5.99221e-05
115 *110:26 *408:8 1.40415e-05
116 *110:26 *445:154 0
117 *110:30 *1200:S 0
118 *110:30 *1454:D 3.98131e-05
119 *110:36 *1169:A1 0
120 *110:36 *1169:A3 0
121 *110:36 *1169:S1 0
122 *110:36 *1318:A0 0.000265447
123 *110:36 *1447:D 7.32272e-05
124 *110:36 *1454:D 2.28303e-05
125 *110:36 *111:47 0.000163757
126 *110:36 *111:66 3.05568e-05
127 *110:36 *111:70 0
128 *110:36 *283:22 8.02709e-05
129 *110:36 *312:42 0.000136951
130 *110:36 *444:127 6.25963e-05
131 *110:40 *111:70 2.75742e-05
132 *110:40 *111:76 0
133 *110:40 *283:22 8.95387e-05
134 *110:42 *111:76 0
135 *110:42 *283:22 2.15245e-05
136 *110:46 *1366:D 0.000312215
137 *110:46 *111:76 0
138 *110:46 *239:14 4.57279e-05
139 *110:46 *392:10 1.92905e-05
140 *110:91 *1254:S 0
141 *110:91 *1299:S 0.000363712
142 *110:91 *1300:A0 0.000276809
143 *110:91 *352:10 9.69119e-06
144 *110:91 *444:141 0
145 *110:97 *1168:A3 0
146 *110:97 *1249:S 0
147 *110:97 *1254:A0 0
148 *110:97 *1254:S 0
149 *110:97 *1299:S 3.17148e-05
150 *110:97 *1350:D 3.18676e-05
151 *110:97 *1390:D 0
152 *110:97 *344:12 0
153 *110:97 *352:10 5.2081e-05
154 *110:97 *444:137 0
155 *110:157 *1144:A2 0.000614033
156 *110:157 *1144:S0 0.000107988
157 *110:157 *1166:A3 0.000167988
158 *110:216 *1180:S 2.6949e-05
159 *110:216 *1226:A 2.87555e-06
160 *110:216 *1651:D 1.02504e-05
161 *110:216 *111:191 0.000332165
162 *110:216 *111:197 0.000227539
163 *110:216 *308:8 0
164 *110:216 *491:57 0.000227532
165 *110:216 *492:32 0
166 *110:216 *492:34 0
167 *110:216 *492:36 0
168 *110:216 *492:44 0
169 *110:216 *493:40 0.000345692
170 *110:216 *493:74 8.97151e-05
171 *110:230 *1180:S 0
172 *110:230 *1183:S 0.000356028
173 *110:230 *1226:A 0.000100625
174 *110:230 *1226:B 7.65697e-05
175 *110:230 *1227:A 0.000138718
176 *110:230 *1227:B 6.26177e-05
177 *110:230 *1235:A1 9.33978e-07
178 *110:230 *111:197 5.5518e-05
179 *110:230 *111:199 0
180 *110:230 *111:201 4.48731e-05
181 *110:230 *261:14 0.00010138
182 *110:230 *290:8 0.00117659
183 *110:232 *1235:A1 3.80953e-06
184 *110:232 *1263:A0 0
185 *110:241 *1234:A0 0.000482607
186 *110:241 *1234:S 8.3601e-05
187 *110:241 *1235:A1 5.30637e-06
188 *110:241 *1398:D 0.00023978
189 *110:241 *301:20 0.000193081
190 *110:241 *328:8 0
191 *1127:A *1244:A0 0.000194518
192 *1180:A1 *110:216 9.25014e-06
193 *1180:A1 *110:230 3.67257e-05
194 *1342:CLK *1290:A1 4.25311e-05
195 *1344:CLK *110:14 0
196 *1344:CLK *110:16 0
197 *1344:CLK *110:216 0.000108589
198 *1350:CLK *110:97 0
199 *1351:CLK *110:36 5.33005e-05
200 *1358:CLK *110:20 0.000186662
201 *1358:CLK *110:26 8.66063e-05
202 *1366:CLK *1290:A1 7.09054e-05
203 *1366:CLK *110:42 0.000274288
204 *1366:CLK *110:46 9.02916e-05
205 *1374:CLK *110:241 8.27184e-06
206 *1651:CLK *110:216 7.43578e-06
207 *1651:RESET_B *1594:A 2.49484e-05
208 *1651:RESET_B *110:14 1.93709e-05
209 *1:21 *110:16 2.69614e-05
210 *68:20 *110:16 0.000441575
211 *68:22 *110:16 0.000629669
212 *68:28 *110:16 2.06178e-05
213 *85:37 *1308:A1 0
214 *85:41 *110:91 0.00010726
215 *85:66 *110:97 0
216 *88:12 *110:30 0.000274394
217 *88:16 *110:36 8.62995e-06
218 *88:20 *110:30 0
219 *88:110 *110:26 0.000153762
220 *88:110 *110:30 0.000361133
221 *88:112 *110:26 5.33005e-05
222 *90:34 *110:16 0
223 *93:72 *110:14 1.02504e-05
224 *101:16 *1244:A0 5.33005e-05
225 *105:58 *110:30 0
*RES
1 *1651:Q *110:4 9.3 
2 *110:4 *110:14 15.8119 
3 *110:14 *110:16 58.6637 
4 *110:16 *110:20 6.95051 
5 *110:20 *110:26 9.07923 
6 *110:26 *110:30 17.2971 
7 *110:30 *110:36 22.5496 
8 *110:36 *110:40 4.7525 
9 *110:40 *110:42 4.72775 
10 *110:42 *110:46 7.02974 
11 *110:46 *1290:A1 45.6021 
12 *110:46 *1194:A1 32.6813 
13 *110:42 *1224:A0 9.3 
14 *110:40 *110:91 14.3515 
15 *110:91 *110:97 16.1832 
16 *110:97 *1317:A1 32.706 
17 *110:97 *1205:A0 9.3 
18 *110:91 *110:121 4.5 
19 *110:121 *1299:A1 17.6416 
20 *110:121 *1254:A1 9.3 
21 *110:36 *1308:A1 21.8396 
22 *110:30 *1326:A0 9.3 
23 *110:26 *110:157 12.6436 
24 *110:157 *1244:A0 31.3331 
25 *110:157 *1215:A0 9.3 
26 *110:20 *1272:A1 9.3 
27 *110:14 *110:216 48.911 
28 *110:216 *110:230 36.8714 
29 *110:230 *110:232 0.742578 
30 *110:232 *1183:A1 9.3 
31 *110:232 *110:241 15.4209 
32 *110:241 *1281:A1 22.6812 
33 *110:241 *1234:A1 9.3 
34 *110:230 *1263:A1 21.8396 
35 *110:4 *1594:A 21.7901 
*END

*D_NET *111 0.0350875
*CONN
*I *1264:A1 I *D sky130_fd_sc_hd__mux2_1
*I *1184:A1 I *D sky130_fd_sc_hd__mux2_1
*I *1282:A1 I *D sky130_fd_sc_hd__mux2_1
*I *1235:A1 I *D sky130_fd_sc_hd__mux2_1
*I *1599:A I *D sky130_fd_sc_hd__nor2_1
*I *1273:A1 I *D sky130_fd_sc_hd__mux2_1
*I *1216:A0 I *D sky130_fd_sc_hd__mux2_1
*I *1327:A0 I *D sky130_fd_sc_hd__mux2_1
*I *1318:A1 I *D sky130_fd_sc_hd__mux2_1
*I *1255:A1 I *D sky130_fd_sc_hd__mux2_1
*I *1300:A1 I *D sky130_fd_sc_hd__mux2_1
*I *1309:A1 I *D sky130_fd_sc_hd__mux2_1
*I *1225:A0 I *D sky130_fd_sc_hd__mux2_1
*I *1291:A1 I *D sky130_fd_sc_hd__mux2_1
*I *1195:A1 I *D sky130_fd_sc_hd__mux2_1
*I *1206:A0 I *D sky130_fd_sc_hd__mux2_1
*I *1245:A0 I *D sky130_fd_sc_hd__mux2_1
*I *1652:Q O *D sky130_fd_sc_hd__dfrtp_1
*CAP
1 *1264:A1 0.000333382
2 *1184:A1 0
3 *1282:A1 0
4 *1235:A1 0.000368257
5 *1599:A 0
6 *1273:A1 4.6683e-05
7 *1216:A0 0.000147791
8 *1327:A0 0
9 *1318:A1 0
10 *1255:A1 0
11 *1300:A1 0
12 *1309:A1 0.000487785
13 *1225:A0 0.000258531
14 *1291:A1 0
15 *1195:A1 0.000114068
16 *1206:A0 0.000240143
17 *1245:A0 0.000446502
18 *1652:Q 6.40002e-05
19 *111:201 0.000576405
20 *111:199 0.000230532
21 *111:197 0.000875626
22 *111:191 0.00151567
23 *111:164 0.00128674
24 *111:100 0.000746316
25 *111:80 0.000398593
26 *111:76 0.00107645
27 *111:70 0.0010184
28 *111:66 0.000416476
29 *111:49 0.000450049
30 *111:47 0.000755746
31 *111:35 0.000921814
32 *111:33 0.000333768
33 *111:20 0.000557737
34 *111:18 0.00101225
35 *111:12 0.00156734
36 *111:8 0.00106794
37 *1195:A1 *1195:A0 0
38 *1195:A1 *1291:A0 2.27416e-05
39 *1195:A1 *1291:S 6.21279e-05
40 *1206:A0 *1168:A0 0
41 *1206:A0 *1205:S 2.89114e-05
42 *1206:A0 *1206:S 4.43256e-05
43 *1206:A0 *1317:S 2.49484e-05
44 *1206:A0 *1351:D 0.000539224
45 *1206:A0 *1447:D 2.16719e-05
46 *1206:A0 *296:32 0.000609768
47 *1216:A0 *1216:A1 3.30352e-05
48 *1216:A0 *288:18 0.000432243
49 *1225:A0 *1225:A1 0.000144773
50 *1225:A0 *1367:D 0
51 *1225:A0 *417:10 0
52 *1235:A1 *1170:A2 0.000258005
53 *1235:A1 *1235:A0 0.00053128
54 *1235:A1 *1282:A0 0.000180377
55 *1235:A1 *1415:D 0.000278574
56 *1235:A1 *273:10 0
57 *1235:A1 *277:10 0.000302417
58 *1235:A1 *301:20 5.52302e-05
59 *1235:A1 *308:16 0
60 *1245:A0 *1173:A3 2.21972e-05
61 *1245:A0 *1173:S0 0
62 *1245:A0 *1245:A1 0
63 *1245:A0 *1273:A0 0.000104345
64 *1245:A0 *1383:D 0
65 *1245:A0 *303:40 2.89114e-05
66 *1245:A0 *377:10 0
67 *1245:A0 *409:10 7.80714e-06
68 *1245:A0 *444:92 0.000107503
69 *1264:A1 *1170:A1 0.000304846
70 *1264:A1 *1264:A0 0.000196728
71 *1264:A1 *1335:D 0
72 *1264:A1 *1399:D 0
73 *1264:A1 *285:12 7.26935e-05
74 *1264:A1 *290:32 0
75 *1264:A1 *444:310 0.00027095
76 *1264:A1 *444:397 0.000126439
77 *1273:A1 *1144:A0 2.28598e-05
78 *1273:A1 *1273:A0 5.33005e-05
79 *1309:A1 *1171:A0 0
80 *1309:A1 *1171:A1 0.000226021
81 *1309:A1 *1171:A2 0
82 *1309:A1 *1171:S0 0
83 *1309:A1 *1195:A0 0
84 *1309:A1 *1225:A1 0
85 *1309:A1 *1309:A0 0.000133012
86 *1309:A1 *1367:D 0
87 *1309:A1 *114:124 0
88 *1309:A1 *417:10 0
89 *111:8 *490:30 0.000227532
90 *111:8 *493:38 0
91 *111:12 *1163:A3 4.15161e-05
92 *111:12 *1243:A1 0.000129868
93 *111:12 *1357:D 7.18069e-05
94 *111:12 *298:38 3.67356e-05
95 *111:12 *303:14 0.000427672
96 *111:12 *303:26 0.000321221
97 *111:12 *313:29 0
98 *111:18 *1158:S0 0
99 *111:18 *1173:S0 0
100 *111:18 *1215:S 0
101 *111:18 *1273:A0 7.79781e-06
102 *111:18 *1354:D 0
103 *111:18 *1451:D 0.000379528
104 *111:18 *1452:D 0.00038195
105 *111:18 *298:38 0.000131958
106 *111:18 *303:26 6.35239e-05
107 *111:18 *313:29 0
108 *111:18 *313:37 0
109 *111:18 *313:64 0
110 *111:18 *316:10 3.57372e-05
111 *111:20 *1173:S0 0
112 *111:20 *1273:A0 0.000120073
113 *111:35 *288:18 0.000564328
114 *111:47 *1169:A1 0
115 *111:47 *1169:S0 1.48042e-05
116 *111:47 *1169:S1 0
117 *111:47 *1407:D 2.15245e-05
118 *111:47 *114:47 3.81416e-06
119 *111:47 *263:14 0.000197991
120 *111:47 *296:32 0.000125724
121 *111:47 *303:40 0.000198698
122 *111:47 *312:42 0.00010415
123 *111:47 *376:12 1.72894e-05
124 *111:49 *1447:D 3.90513e-05
125 *111:49 *296:32 8.32242e-05
126 *111:66 *1255:S 1.21258e-05
127 *111:66 *1294:S 1.3277e-05
128 *111:66 *1318:A0 1.40306e-05
129 *111:66 *1447:D 4.88515e-05
130 *111:70 *1255:S 4.58194e-05
131 *111:70 *1299:S 3.53302e-05
132 *111:70 *310:45 0.000181404
133 *111:76 *1225:A1 2.09915e-05
134 *111:76 *1299:S 0.000136958
135 *111:76 *1367:D 6.81335e-05
136 *111:76 *239:14 0.000200423
137 *111:80 *1291:A0 8.81471e-06
138 *111:80 *1367:D 0.000137733
139 *111:80 *417:10 1.92905e-05
140 *111:164 *1580:B1 2.46032e-05
141 *111:164 *1594:B 0
142 *111:164 *1598:A2 0.00026219
143 *111:164 *626:58 2.14658e-05
144 *111:191 *1278:S 5.70551e-05
145 *111:191 *1580:B1 4.0342e-06
146 *111:191 *1595:B1 0
147 *111:191 *1597:A 0
148 *111:191 *1598:A1 0.000127427
149 *111:191 *1598:A2 7.27536e-05
150 *111:191 *1598:B1 0.000194436
151 *111:191 *1600:A2 1.20883e-05
152 *111:191 *1600:A3 9.34289e-05
153 *111:191 *493:40 0
154 *111:191 *616:12 0
155 *111:191 *626:58 0.000500525
156 *111:197 *1180:A0 0.000270326
157 *111:197 *1227:B 4.00276e-06
158 *111:197 *1231:A0 9.90431e-05
159 *111:197 *1278:S 0
160 *111:197 *301:14 7.51317e-05
161 *111:197 *301:20 0.000226265
162 *111:197 *308:12 0.000118259
163 *111:199 *301:20 5.33005e-05
164 *111:201 *301:20 0.000659775
165 *1094:A0 *1273:A1 0
166 *1094:A0 *111:35 0
167 *1180:A1 *111:197 9.71197e-05
168 *1290:A1 *111:76 0
169 *1317:A1 *1206:A0 5.52238e-05
170 *1331:CLK *111:191 0
171 *1351:CLK *111:66 0.000312215
172 *1380:CLK *111:18 0
173 *1404:CLK *111:18 0.000112823
174 *1407:CLK *111:47 0.000136028
175 *1415:CLK *1235:A1 5.52302e-05
176 *1423:CLK *1195:A1 0
177 *1438:CLK *111:76 4.62969e-05
178 *1438:CLK *111:80 3.44348e-05
179 *1455:CLK *111:47 0.000168888
180 *1578:A *111:164 9.33978e-07
181 *1651:CLK *111:191 9.60771e-05
182 *1652:RESET_B *111:8 5.49589e-05
183 *78:58 *111:80 4.01768e-05
184 *81:28 *111:12 0.000384373
185 *81:69 *111:12 0
186 *81:69 *111:164 0
187 *81:84 *111:164 0
188 *85:43 *111:76 0
189 *88:16 *111:47 8.02593e-05
190 *89:6 *1216:A0 1.32552e-05
191 *89:12 *1216:A0 1.40415e-05
192 *89:12 *111:35 9.35866e-05
193 *89:20 *1245:A0 0
194 *89:83 *111:18 0.000139683
195 *89:83 *111:20 0.00022845
196 *89:105 *1216:A0 4.98592e-05
197 *91:75 *111:18 0.000115373
198 *91:90 *111:18 9.87201e-05
199 *93:72 *111:191 0
200 *100:20 *111:47 0.00052237
201 *101:16 *111:35 7.07155e-06
202 *104:157 *1264:A1 0
203 *105:40 *1245:A0 1.72894e-05
204 *109:107 *111:12 0.000295851
205 *109:107 *111:164 0.000442792
206 *109:115 *111:12 0.000153032
207 *110:14 *111:191 0.000199934
208 *110:36 *111:47 0.000163757
209 *110:36 *111:66 3.05568e-05
210 *110:36 *111:70 0
211 *110:40 *111:70 2.75742e-05
212 *110:40 *111:76 0
213 *110:42 *111:76 0
214 *110:46 *111:76 0
215 *110:216 *111:191 0.000332165
216 *110:216 *111:197 0.000227539
217 *110:230 *1235:A1 9.33978e-07
218 *110:230 *111:197 5.5518e-05
219 *110:230 *111:199 0
220 *110:230 *111:201 4.48731e-05
221 *110:232 *1235:A1 3.80953e-06
222 *110:241 *1235:A1 5.30637e-06
*RES
1 *1652:Q *111:8 16.8198 
2 *111:8 *111:12 29.468 
3 *111:12 *111:18 32.7106 
4 *111:18 *111:20 5.64359 
5 *111:20 *1245:A0 26.4981 
6 *111:20 *111:33 4.5 
7 *111:33 *111:35 7.5743 
8 *111:35 *111:47 44.5398 
9 *111:47 *111:49 1.43565 
10 *111:49 *1206:A0 27.2159 
11 *111:49 *111:66 11.5297 
12 *111:66 *111:70 8.01984 
13 *111:70 *111:76 25.2724 
14 *111:76 *111:80 9.72777 
15 *111:80 *1195:A1 22.3099 
16 *111:80 *1291:A1 9.3 
17 *111:76 *111:100 4.5 
18 *111:100 *1225:A0 21.2258 
19 *111:100 *1309:A1 28.2803 
20 *111:70 *1300:A1 9.3 
21 *111:66 *1255:A1 9.3 
22 *111:47 *1318:A1 13.8 
23 *111:35 *1327:A0 9.3 
24 *111:33 *1216:A0 16.305 
25 *111:18 *1273:A1 15.1119 
26 *111:8 *111:164 15.8367 
27 *111:164 *1599:A 9.3 
28 *111:164 *111:191 48.0596 
29 *111:191 *111:197 19.1585 
30 *111:197 *111:199 0.742578 
31 *111:199 *111:201 8.71292 
32 *111:201 *1235:A1 34.6862 
33 *111:201 *1282:A1 9.3 
34 *111:199 *1184:A1 9.3 
35 *111:197 *1264:A1 31.9387 
*END

*D_NET *112 0.0114349
*CONN
*I *1548:C I *D sky130_fd_sc_hd__or4_1
*I *1550:B I *D sky130_fd_sc_hd__nor3b_1
*I *1551:B I *D sky130_fd_sc_hd__or3b_1
*I *1603:A1 I *D sky130_fd_sc_hd__o211ai_1
*I *1552:A2 I *D sky130_fd_sc_hd__a21oi_1
*I *1513:A_N I *D sky130_fd_sc_hd__and4b_1
*I *1512:A_N I *D sky130_fd_sc_hd__nand3b_1
*I *1134:SLEEP I *D sky130_fd_sc_hd__lpflow_isobufsrc_1
*I *1511:A_N I *D sky130_fd_sc_hd__nand2b_1
*I *1534:Q O *D sky130_fd_sc_hd__dfrtp_1
*CAP
1 *1548:C 0
2 *1550:B 1.49752e-05
3 *1551:B 0
4 *1603:A1 0.000251806
5 *1552:A2 7.47598e-05
6 *1513:A_N 0.000129858
7 *1512:A_N 1.97835e-05
8 *1134:SLEEP 3.42557e-05
9 *1511:A_N 0.000119748
10 *1534:Q 0.00066051
11 *112:93 0.000368025
12 *112:85 0.000131195
13 *112:45 5.40392e-05
14 *112:32 0.000147344
15 *112:30 0.000537283
16 *112:20 0.000568341
17 *112:18 0.000278658
18 *112:10 0.000825416
19 *1134:SLEEP *1134:A 0.00018372
20 *1134:SLEEP *490:30 0.00018372
21 *1511:A_N *128:14 8.81278e-05
22 *1511:A_N *491:28 9.90367e-05
23 *1512:A_N *1134:A 9.71197e-05
24 *1512:A_N *490:30 8.46829e-05
25 *1513:A_N *1134:A 0.000201572
26 *1513:A_N *1513:B 7.43578e-06
27 *1513:A_N *113:54 1.98839e-05
28 *1513:A_N *490:22 6.74408e-05
29 *1513:A_N *493:38 9.41778e-05
30 *1550:B *1551:A 5.33005e-05
31 *1550:B *1604:B 4.08637e-05
32 *1552:A2 *1602:B2 9.60875e-05
33 *1552:A2 *628:12 9.60875e-05
34 *1603:A1 *1603:A2 0.000351156
35 *1603:A1 *1649:D 0.000154993
36 *1603:A1 *577:18 0.000224161
37 *1603:A1 *577:20 1.69961e-05
38 *1603:A1 *627:14 3.17684e-05
39 *112:10 *1521:B 0.000156119
40 *112:10 *1528:A 0
41 *112:10 *1546:B 4.43256e-05
42 *112:10 *1548:A 5.33005e-05
43 *112:10 *1566:B 9.66073e-06
44 *112:10 *580:8 1.58163e-05
45 *112:20 *1555:A 4.60375e-05
46 *112:20 *583:18 0.000102911
47 *112:30 *1555:A 9.60337e-06
48 *112:30 *1602:B2 0.000118028
49 *112:30 *618:14 0.000155529
50 *112:30 *626:10 0
51 *112:93 *1551:A 0.000219711
52 *112:93 *1604:B 0.000262498
53 *112:93 *577:18 1.98839e-05
54 *112:93 *582:14 7.47077e-05
55 *112:93 *627:14 2.87435e-05
56 *112:93 *627:62 1.02504e-05
57 *1534:RESET_B *112:10 4.85567e-05
58 *1646:RESET_B *112:10 0.000304394
59 *1646:RESET_B *112:18 0
60 *1676:RESET_B *112:18 0
61 *2:240 *112:30 6.35515e-05
62 *2:339 *112:10 0.000368201
63 *2:349 *112:10 8.66063e-05
64 *82:18 *1511:A_N 0
65 *82:20 *1511:A_N 7.79781e-06
66 *82:48 *1511:A_N 1.65558e-05
67 *82:48 *112:30 0.000118748
68 *82:48 *112:32 1.59782e-05
69 *83:122 *1603:A1 2.32517e-05
70 *84:23 *112:10 0.000118592
71 *84:23 *112:18 3.06878e-06
72 *84:97 *112:10 0.000357054
73 *84:135 *112:10 2.50192e-05
74 *104:18 *1552:A2 0
75 *104:18 *112:18 0.000386433
76 *104:18 *112:20 0.000176417
77 *105:8 *112:18 6.05161e-06
78 *105:12 *112:18 0.000325217
79 *105:12 *112:20 0.000380606
80 *105:12 *112:30 0.000360977
81 *105:16 *1511:A_N 0.000121596
82 *105:16 *112:30 0.000301979
83 *105:16 *112:32 2.61337e-05
84 *105:186 *112:18 5.66157e-05
*RES
1 *1534:Q *112:10 35.5625 
2 *112:10 *112:18 12.7426 
3 *112:18 *112:20 6.90598 
4 *112:20 *112:30 22.9444 
5 *112:30 *112:32 1.01486 
6 *112:32 *1511:A_N 19.0723 
7 *112:32 *112:45 4.5 
8 *112:45 *1134:SLEEP 11.7505 
9 *112:45 *1512:A_N 10.6119 
10 *112:30 *1513:A_N 19.1466 
11 *112:20 *1552:A2 15.8545 
12 *112:18 *112:85 4.5 
13 *112:85 *112:93 14.0248 
14 *112:93 *1603:A1 19.4486 
15 *112:93 *1551:B 9.3 
16 *112:85 *1550:B 10.0426 
17 *112:10 *1548:C 9.3 
*END

*D_NET *113 0.00570292
*CONN
*I *1513:B I *D sky130_fd_sc_hd__and4b_1
*I *1134:A I *D sky130_fd_sc_hd__lpflow_isobufsrc_1
*I *1512:B I *D sky130_fd_sc_hd__nand3b_1
*I *1511:B I *D sky130_fd_sc_hd__nand2b_1
*I *1602:A3 I *D sky130_fd_sc_hd__a32o_1
*I *1653:Q O *D sky130_fd_sc_hd__dfrtp_1
*CAP
1 *1513:B 3.94805e-05
2 *1134:A 0.000124035
3 *1512:B 0
4 *1511:B 0.000142459
5 *1602:A3 0.000513562
6 *1653:Q 7.60385e-05
7 *113:54 0.000142674
8 *113:39 0.000299107
9 *113:33 0.000496963
10 *113:6 0.000909074
11 *1134:A *1512:C 1.04232e-05
12 *1134:A *490:22 2.28499e-05
13 *1134:A *490:30 4.62898e-05
14 *1134:A *493:38 6.9727e-05
15 *1511:B *490:20 0
16 *1511:B *491:28 6.85554e-05
17 *1513:B *1513:C 3.69047e-06
18 *1513:B *490:22 4.8843e-05
19 *1513:B *493:38 5.41609e-05
20 *1602:A3 *1552:A1 0.000104523
21 *1602:A3 *1553:A 4.53889e-05
22 *1602:A3 *1554:B1 2.92686e-05
23 *1602:A3 *1603:A2 0
24 *1602:A3 *1653:D 0.000114601
25 *1602:A3 *581:29 8.55871e-05
26 *1602:A3 *583:18 2.22043e-05
27 *1602:A3 *618:14 0.000110933
28 *1602:A3 *626:14 9.60875e-05
29 *1602:A3 *627:62 5.33005e-05
30 *1602:A3 *628:12 2.97829e-05
31 *113:6 *1553:A 3.98547e-05
32 *113:6 *1553:B 5.33433e-05
33 *113:6 *628:12 5.70688e-05
34 *113:33 *492:130 0
35 *113:33 *493:38 0
36 *113:33 *502:8 0
37 *113:39 *502:8 0
38 *113:54 *490:22 5.33005e-05
39 *1134:SLEEP *1134:A 0.00018372
40 *1512:A_N *1134:A 9.71197e-05
41 *1513:A_N *1134:A 0.000201572
42 *1513:A_N *1513:B 7.43578e-06
43 *1513:A_N *113:54 1.98839e-05
44 *1644:RESET_B *113:33 0.000128868
45 *1653:CLK *1602:A3 1.90936e-05
46 *2:240 *1602:A3 0.000121221
47 *2:242 *113:33 4.69976e-05
48 *2:244 *113:33 0.00024095
49 *104:18 *113:33 0.000414393
50 *104:18 *113:39 1.37679e-05
51 *104:24 *1511:B 0.000226014
52 *104:24 *113:39 1.87026e-05
*RES
1 *1653:Q *113:6 12.3198 
2 *113:6 *1602:A3 36.3317 
3 *113:6 *113:33 18.1387 
4 *113:33 *113:39 2.50001 
5 *113:39 *1511:B 18.6886 
6 *113:39 *113:54 5.24258 
7 *113:54 *1512:B 9.3 
8 *113:54 *1134:A 15.7604 
9 *113:33 *1513:B 15.6812 
*END

*D_NET *114 0.0390731
*CONN
*I *1151:S0 I *D sky130_fd_sc_hd__mux4_2
*I *1153:S0 I *D sky130_fd_sc_hd__mux4_2
*I *1162:S0 I *D sky130_fd_sc_hd__mux4_2
*I *1148:S0 I *D sky130_fd_sc_hd__mux4_2
*I *1158:S0 I *D sky130_fd_sc_hd__mux4_2
*I *1143:S0 I *D sky130_fd_sc_hd__mux4_2
*I *1166:S0 I *D sky130_fd_sc_hd__mux4_2
*I *1172:S0 I *D sky130_fd_sc_hd__mux4_2
*I *1146:S0 I *D sky130_fd_sc_hd__mux4_2
*I *1157:S0 I *D sky130_fd_sc_hd__mux4_2
*I *1141:S0 I *D sky130_fd_sc_hd__mux4_2
*I *1150:S0 I *D sky130_fd_sc_hd__mux4_2
*I *1147:S0 I *D sky130_fd_sc_hd__mux4_2
*I *1156:S0 I *D sky130_fd_sc_hd__mux4_2
*I *1171:S0 I *D sky130_fd_sc_hd__mux4_2
*I *1165:S0 I *D sky130_fd_sc_hd__mux4_2
*I *1168:S0 I *D sky130_fd_sc_hd__mux4_2
*I *1142:S0 I *D sky130_fd_sc_hd__mux4_2
*I *1173:S0 I *D sky130_fd_sc_hd__mux4_2
*I *1133:X O *D sky130_fd_sc_hd__buf_16
*CAP
1 *1151:S0 4.87132e-05
2 *1153:S0 0.000277959
3 *1162:S0 0.00108796
4 *1148:S0 6.92696e-05
5 *1158:S0 5.88268e-05
6 *1143:S0 0.000192812
7 *1166:S0 0.000325752
8 *1172:S0 1.58563e-05
9 *1146:S0 0.000295487
10 *1157:S0 9.58877e-05
11 *1141:S0 5.60324e-05
12 *1150:S0 0.000571599
13 *1147:S0 1.31426e-05
14 *1156:S0 0
15 *1171:S0 0.000143253
16 *1165:S0 6.00569e-05
17 *1168:S0 9.94978e-05
18 *1142:S0 0.00013373
19 *1173:S0 0.00136736
20 *1133:X 0.000840939
21 *114:242 0.00176774
22 *114:226 0.000853647
23 *114:173 0.000772031
24 *114:161 0.00050693
25 *114:133 0.000811357
26 *114:124 0.000503941
27 *114:112 0.000546824
28 *114:99 0.000910383
29 *114:83 0.0011799
30 *114:74 0.000923762
31 *114:60 0.000852674
32 *114:49 0.000797118
33 *114:47 0.00119841
34 *114:26 0.00091047
35 *114:18 0.000978217
36 *114:16 0.00035987
37 *114:14 0.000840939
38 *1141:S0 *1144:A2 9.41642e-05
39 *1141:S0 *1303:S 0.000213492
40 *1142:S0 *1142:S1 1.46624e-05
41 *1142:S0 *1200:A1 0
42 *1142:S0 *1345:D 0.000153054
43 *1142:S0 *427:10 0
44 *1142:S0 *435:10 0
45 *1143:S0 *1143:S1 0.000122921
46 *1143:S0 *1359:D 4.00276e-06
47 *1143:S0 *377:10 4.66989e-07
48 *1143:S0 *444:73 0.000121649
49 *1146:S0 *1297:A0 0.000155476
50 *1146:S0 *1346:D 0.000109826
51 *1146:S0 *1388:D 0.000133012
52 *1146:S0 *310:18 0.000186707
53 *1146:S0 *310:39 0
54 *1146:S0 *312:42 0
55 *1146:S0 *436:10 4.66989e-07
56 *1146:S0 *443:88 0.000106308
57 *1148:S0 *372:8 1.16144e-05
58 *1150:S0 *1147:A0 2.78608e-05
59 *1150:S0 *1285:S 0
60 *1150:S0 *1287:A0 0
61 *1150:S0 *1304:A0 6.13757e-06
62 *1150:S0 *1362:D 0
63 *1150:S0 *1419:D 0.000302417
64 *1150:S0 *1435:D 0
65 *1150:S0 *164:16 1.37292e-05
66 *1150:S0 *265:8 0.000237809
67 *1150:S0 *273:10 0
68 *1150:S0 *309:24 0.000177059
69 *1150:S0 *380:12 2.61337e-05
70 *1151:S0 *1269:A0 4.73656e-05
71 *1151:S0 *405:10 0.000107404
72 *1151:S0 *444:61 1.18064e-05
73 *1153:S0 *1314:A0 6.0038e-05
74 *1153:S0 *307:34 0
75 *1153:S0 *429:12 0
76 *1153:S0 *437:10 0.000302424
77 *1153:S0 *444:520 0
78 *1157:S0 *1157:A2 0.000116099
79 *1158:S0 *1404:D 0.000153054
80 *1162:S0 *1149:A2 0
81 *1162:S0 *1164:S0 0.000255823
82 *1162:S0 *1201:A1 3.34295e-05
83 *1162:S0 *268:22 3.44572e-05
84 *1162:S0 *296:20 0.000120439
85 *1162:S0 *312:26 7.48356e-05
86 *1162:S0 *428:8 0.000358977
87 *1162:S0 *443:80 0.000104208
88 *1162:S0 *443:88 0
89 *1162:S0 *445:137 0.000255024
90 *1165:S0 *1165:A2 0
91 *1165:S0 *1165:A3 0.000126439
92 *1165:S0 *299:49 2.72449e-05
93 *1165:S0 *444:172 0.000148903
94 *1166:S0 *1166:A0 2.72615e-05
95 *1166:S0 *1166:A3 0
96 *1166:S0 *1166:S1 0.000140801
97 *1166:S0 *1169:A0 0
98 *1166:S0 *1455:D 0
99 *1166:S0 *376:12 0
100 *1168:S0 *1168:A0 2.10446e-05
101 *1168:S0 *1168:A1 5.7616e-05
102 *1168:S0 *1169:A1 0
103 *1168:S0 *1249:S 4.16114e-05
104 *1168:S0 *305:34 6.92148e-06
105 *1171:S0 *1165:A2 9.0629e-06
106 *1171:S0 *1171:A0 5.59013e-05
107 *1171:S0 *1171:S1 8.94203e-05
108 *1171:S0 *283:8 1.17968e-05
109 *1171:S0 *286:22 8.32242e-05
110 *1173:S0 *1216:A1 0.000177948
111 *1173:S0 *1404:D 3.17148e-05
112 *1173:S0 *288:18 1.78353e-05
113 *1173:S0 *307:63 7.92975e-05
114 *1173:S0 *377:10 5.2081e-05
115 *1173:S0 *398:12 9.77592e-05
116 *1173:S0 *444:67 0
117 *114:14 *1151:A1 9.99644e-06
118 *114:14 *1212:A1 9.11365e-06
119 *114:14 *1241:A1 5.7616e-05
120 *114:14 *1355:D 0
121 *114:14 *1400:D 0
122 *114:14 *317:10 6.48594e-05
123 *114:14 *397:12 1.00073e-05
124 *114:14 *402:12 1.92905e-05
125 *114:14 *405:10 0.000220608
126 *114:14 *443:20 4.88631e-05
127 *114:18 *313:37 0
128 *114:18 *444:61 0.000329892
129 *114:26 *1270:A0 0.000360795
130 *114:26 *1324:A1 2.79421e-05
131 *114:26 *1404:D 0.000147893
132 *114:26 *276:16 0.000109132
133 *114:26 *398:12 3.90513e-05
134 *114:26 *406:10 0.000105696
135 *114:26 *444:61 4.99963e-05
136 *114:47 *1173:A2 0.000139913
137 *114:47 *1173:S1 8.71227e-05
138 *114:47 *1321:S 2.51343e-06
139 *114:47 *1359:D 0
140 *114:47 *1407:D 0.000506182
141 *114:47 *1455:D 1.53273e-05
142 *114:47 *377:10 0
143 *114:47 *409:10 4.13496e-05
144 *114:47 *444:73 0.000233305
145 *114:47 *444:92 0
146 *114:49 *1142:S1 2.37761e-05
147 *114:49 *1166:S1 7.90393e-05
148 *114:49 *1455:D 0
149 *114:49 *263:14 0
150 *114:49 *444:94 2.97756e-05
151 *114:60 *1172:A0 2.28598e-05
152 *114:60 *1174:A1 2.27416e-05
153 *114:60 *1200:S 0.000354111
154 *114:60 *1249:A0 0
155 *114:60 *1294:S 0
156 *114:60 *1326:S 9.7659e-05
157 *114:60 *1385:D 1.64343e-05
158 *114:60 *441:10 1.42064e-05
159 *114:60 *444:127 0.000158459
160 *114:74 *1169:A1 9.87983e-06
161 *114:74 *1172:A0 1.24368e-05
162 *114:74 *1172:A3 0.000265447
163 *114:74 *1172:S1 8.36075e-05
164 *114:74 *1206:A1 0.000181796
165 *114:74 *1294:S 0
166 *114:74 *444:137 2.13481e-06
167 *114:83 *1169:A1 0
168 *114:83 *1174:A3 0
169 *114:83 *1255:A0 3.90513e-05
170 *114:83 *305:34 3.09983e-05
171 *114:83 *310:39 0.000686886
172 *114:83 *312:42 0
173 *114:99 *1141:A3 0
174 *114:99 *1144:A2 8.46044e-06
175 *114:99 *1165:A3 5.66157e-05
176 *114:99 *1174:A2 8.33968e-05
177 *114:99 *286:22 0.000229971
178 *114:99 *311:73 0
179 *114:99 *419:8 5.52238e-05
180 *114:99 *444:172 4.90803e-05
181 *114:112 *1309:S 0
182 *114:112 *1342:D 0.00036518
183 *114:112 *286:22 0.000485537
184 *114:124 *1309:A0 0
185 *114:124 *1436:D 0.000147015
186 *114:124 *283:8 0.000123668
187 *114:124 *311:47 0.000612942
188 *114:133 *1436:D 7.80605e-05
189 *114:133 *311:47 0.000601143
190 *114:133 *444:206 0
191 *114:161 *1174:A3 0
192 *114:161 *310:39 0.000144512
193 *114:173 *1144:A2 0.000174232
194 *114:173 *1174:A3 0.000150632
195 *114:173 *1303:S 0.000184745
196 *114:173 *1388:D 0.000173804
197 *114:173 *1433:D 0
198 *114:173 *310:39 0
199 *114:226 *1211:S 0.000183726
200 *114:226 *1215:S 0.0001839
201 *114:226 *372:8 2.72967e-05
202 *114:242 *1240:A1 3.22964e-05
203 *114:242 *1378:D 3.67257e-05
204 *114:242 *298:38 0
205 *114:242 *303:26 0
206 *114:242 *303:34 0.000118568
207 *1091:A0 *114:226 0
208 *1117:A *114:124 8.74334e-05
209 *1211:A0 *1148:S0 0.000133688
210 *1211:A0 *114:226 1.54142e-05
211 *1245:A0 *1173:S0 0
212 *1270:A1 *114:26 0
213 *1270:A1 *114:226 6.81335e-05
214 *1290:A1 *1171:S0 1.65558e-05
215 *1290:A1 *114:112 5.39361e-06
216 *1294:A1 *114:47 0
217 *1294:A1 *114:49 0
218 *1309:A1 *1171:S0 0
219 *1309:A1 *114:124 0
220 *1337:CLK *114:99 0.000109185
221 *1346:CLK *1146:S0 0.00022132
222 *1354:CLK *114:226 0
223 *1378:CLK *1162:S0 1.05731e-05
224 *1378:CLK *114:226 0
225 *1378:CLK *114:242 0.000563309
226 *1380:CLK *1158:S0 1.08359e-05
227 *1380:CLK *114:26 2.88018e-06
228 *1385:CLK *114:60 0.000142856
229 *1404:CLK *1173:S0 0
230 *1407:CLK *1166:S0 0
231 *1407:CLK *114:47 7.09054e-05
232 *1417:CLK *114:99 0.000114178
233 *1417:CLK *114:112 0
234 *1435:CLK *1150:S0 0
235 *1447:CLK *114:74 2.87555e-06
236 *1455:CLK *114:47 1.57931e-05
237 *81:20 *114:14 0
238 *85:33 *114:99 0.000151619
239 *89:83 *1173:S0 0
240 *90:10 *1162:S0 9.90431e-05
241 *91:19 *114:226 0
242 *91:21 *114:18 0
243 *91:21 *114:26 0
244 *91:64 *114:18 0
245 *96:16 *1162:S0 0
246 *96:16 *114:242 0
247 *100:20 *1143:S0 0
248 *100:20 *114:47 0
249 *100:42 *1143:S0 0
250 *104:49 *114:14 0.000316334
251 *105:58 *114:60 0
252 *105:66 *114:173 0.000133005
253 *105:115 *1142:S0 0
254 *106:165 *1162:S0 0
255 *106:180 *1146:S0 0
256 *106:207 *1150:S0 4.18895e-05
257 *106:213 *1150:S0 0.000317082
258 *107:24 *1151:S0 9.22054e-05
259 *107:24 *114:14 0.000306317
260 *107:24 *114:18 1.76135e-05
261 *107:62 *1153:S0 3.51442e-05
262 *108:10 *114:14 0.000318164
263 *108:16 *114:14 0.000125986
264 *108:32 *1158:S0 3.34366e-05
265 *108:58 *1157:S0 0
266 *109:151 *1162:S0 0.000389004
267 *111:18 *1158:S0 0
268 *111:18 *1173:S0 0
269 *111:20 *1173:S0 0
270 *111:47 *114:47 3.81416e-06
*RES
1 *1133:X *114:14 49.2903 
2 *114:14 *114:16 4.5 
3 *114:16 *114:18 10.2723 
4 *114:18 *114:26 21.302 
5 *114:26 *1173:S0 22.3466 
6 *1173:S0 *114:47 25.2055 
7 *114:47 *114:49 6.06439 
8 *114:49 *1142:S0 8.03962 
9 *114:49 *114:60 18.906 
10 *114:60 *114:74 16.8392 
11 *114:74 *1168:S0 7.82922 
12 *114:74 *114:83 14.6907 
13 *114:83 *114:99 33.208 
14 *114:99 *1165:S0 7.61883 
15 *114:99 *114:112 16.005 
16 *114:112 *1171:S0 8.84408 
17 *114:112 *114:124 14.4803 
18 *114:124 *1156:S0 4.5 
19 *114:124 *114:133 14.7723 
20 *114:133 *1147:S0 0.507428 
21 *114:133 *1150:S0 29.26 
22 *114:83 *114:161 7.19803 
23 *114:161 *1141:S0 2.93318 
24 *114:161 *114:173 17.6436 
25 *114:173 *1157:S0 7.43318 
26 *114:173 *1146:S0 17.458 
27 *114:60 *1172:S0 0.507428 
28 *114:47 *1166:S0 13.4109 
29 *1173:S0 *1143:S0 6.26241 
30 *114:26 *1158:S0 7.19803 
31 *114:18 *114:226 16.0595 
32 *114:226 *1148:S0 2.38863 
33 *114:226 *114:242 22.2426 
34 *114:242 *1162:S0 46.3269 
35 *114:242 *1153:S0 18.4307 
36 *114:16 *1151:S0 7.61883 
*END

*D_NET *115 0.00159852
*CONN
*I *1083:B2 I *D sky130_fd_sc_hd__a22o_1
*I *1085:C I *D sky130_fd_sc_hd__nand3b_1
*I *1095:Q O *D sky130_fd_sc_hd__dfstp_2
*CAP
1 *1083:B2 0.000110597
2 *1085:C 7.42185e-05
3 *1095:Q 0.000241762
4 *115:14 0.000426578
5 *1083:B2 *1083:A1 5.72318e-05
6 *1083:B2 *443:14 0
7 *1085:C *1083:A1 3.29607e-05
8 *1085:C *1083:A2 1.18358e-05
9 *1085:C *765:21 1.02504e-05
10 *115:14 *1081:A 0.000136028
11 *115:14 *1083:A1 2.09826e-05
12 *115:14 *765:62 1.92789e-05
13 *1083:B1 *1083:B2 0.000156191
14 *1084:A1 *115:14 1.32552e-05
15 *1095:D *115:14 6.09773e-05
16 *50:101 *1083:B2 0.000140321
17 *50:103 *1083:B2 2.11543e-05
18 *50:103 *1085:C 4.96037e-05
19 *50:105 *1085:C 1.52978e-05
*RES
1 *1095:Q *115:14 21.956 
2 *115:14 *1085:C 15.8668 
3 *115:14 *1083:B2 19.555 
*END

*D_NET *116 0.00162211
*CONN
*I *1083:A2 I *D sky130_fd_sc_hd__a22o_1
*I *1084:A2 I *D sky130_fd_sc_hd__a21o_1
*I *1098:Q O *D sky130_fd_sc_hd__dfrtp_1
*CAP
1 *1083:A2 0.000171215
2 *1084:A2 0.00010041
3 *1098:Q 0.000100294
4 *116:10 0.000371919
5 *1083:A2 *1083:A1 0.000352212
6 *1083:A2 *127:14 9.69119e-06
7 *1083:A2 *765:21 1.31516e-05
8 *1084:A2 *1081:A 2.77289e-05
9 *1084:A2 *127:10 0.000140933
10 *116:10 *1696:A 9.00795e-06
11 *116:10 *127:14 1.69115e-05
12 *116:10 *765:21 7.0758e-05
13 *1084:A1 *1084:A2 3.18676e-05
14 *1085:C *1083:A2 1.18358e-05
15 *1095:D *1083:A2 7.40249e-05
16 *1098:D *116:10 0.000110411
17 *67:12 *1084:A2 6.05161e-06
18 *67:12 *116:10 3.69047e-06
*RES
1 *1098:Q *116:10 17.9584 
2 *116:10 *1084:A2 17.9832 
3 *116:10 *1083:A2 21.1268 
*END

*D_NET *119 0.00131408
*CONN
*I *1697:A0 I *D sky130_fd_sc_hd__mux2_1
*I *1087:A1 I *D sky130_fd_sc_hd__mux2_1
*I *1099:Q O *D sky130_fd_sc_hd__dfrtp_1
*CAP
1 *1697:A0 9.52403e-05
2 *1087:A1 0.000199109
3 *1099:Q 0
4 *119:4 0.000294349
5 *1087:A1 *443:20 0
6 *1697:A0 *443:20 0
7 *1092:S *1087:A1 0.000137007
8 *1099:RESET_B *1087:A1 0.000138106
9 *1099:RESET_B *1697:A0 0.00030669
10 *94:28 *1087:A1 0.000143578
*RES
1 *1099:Q *119:4 9.3 
2 *119:4 *1087:A1 26.2703 
3 *119:4 *1697:A0 13.4584 
*END

*D_NET *120 0.000944364
*CONN
*I *1088:A1 I *D sky130_fd_sc_hd__mux2_1
*I *1698:A0 I *D sky130_fd_sc_hd__mux2_1
*I *1100:Q O *D sky130_fd_sc_hd__dfrtp_1
*CAP
1 *1088:A1 2.06298e-05
2 *1698:A0 8.08475e-05
3 *1100:Q 9.13127e-05
4 *120:6 0.00019279
5 *1100:D *120:6 5.5033e-05
6 *1100:RESET_B *120:6 0.000100931
7 *1767:RESET_B *1088:A1 2.44318e-05
8 *1767:RESET_B *120:6 5.33433e-05
9 *50:239 *1698:A0 0.000130436
10 *50:250 *1698:A0 6.22185e-05
11 *67:24 *1698:A0 0.000132391
*RES
1 *1100:Q *120:6 12.8891 
2 *120:6 *1698:A0 23.9436 
3 *120:6 *1088:A1 10.0426 
*END

*D_NET *121 0.00221386
*CONN
*I *1699:A0 I *D sky130_fd_sc_hd__mux2_1
*I *1089:A1 I *D sky130_fd_sc_hd__mux2_1
*I *1101:Q O *D sky130_fd_sc_hd__dfrtp_1
*CAP
1 *1699:A0 0.000199937
2 *1089:A1 0.000157392
3 *1101:Q 0.00010607
4 *121:10 0.000463399
5 *1699:A0 *1699:A1 9.60939e-05
6 *1699:A0 *1699:S 0.000215102
7 *1699:A0 *1701:S 9.60875e-05
8 *1699:A0 *1763:D 6.86792e-05
9 *121:10 *1701:A0 0
10 *1090:S *1089:A1 5.52238e-05
11 *1763:CLK *121:10 5.58941e-05
12 *1763:RESET_B *1699:A0 1.83929e-05
13 *67:70 *1089:A1 0.000294478
14 *67:70 *1699:A0 0.00022566
15 *71:16 *121:10 0.000119198
16 *71:29 *1089:A1 3.82506e-05
17 *71:29 *1699:A0 3.06878e-06
18 *71:33 *1089:A1 9.33978e-07
19 *105:22 *121:10 0
*RES
1 *1101:Q *121:10 21.8396 
2 *121:10 *1089:A1 14.5971 
3 *121:10 *1699:A0 17.4436 
*END

*D_NET *122 0.0033393
*CONN
*I *1700:A0 I *D sky130_fd_sc_hd__mux2_1
*I *1090:A1 I *D sky130_fd_sc_hd__mux2_1
*I *1102:Q O *D sky130_fd_sc_hd__dfrtp_1
*CAP
1 *1700:A0 0.000453917
2 *1090:A1 0.000514251
3 *1102:Q 0
4 *122:4 0.000968168
5 *1090:A1 *1702:A0 0.000314026
6 *1090:A1 *1765:D 0
7 *1090:A1 *1766:D 0
8 *1090:A1 *373:6 4.01768e-05
9 *1700:A0 *1764:D 0
10 *1700:A0 *1766:D 0
11 *1086:A *1700:A0 2.42516e-05
12 *1090:S *1090:A1 1.92789e-05
13 *1096:CLK *1700:A0 5.52302e-05
14 *1766:CLK *1700:A0 1.92905e-05
15 *1766:RESET_B *1700:A0 4.70821e-05
16 *50:471 *1700:A0 0.000444673
17 *67:12 *1700:A0 2.88018e-06
18 *67:16 *1700:A0 0.00037136
19 *67:18 *1090:A1 0
20 *67:70 *1090:A1 0
21 *71:14 *1090:A1 3.81416e-06
22 *71:16 *1090:A1 5.4115e-05
23 *74:18 *1700:A0 0
24 *94:28 *1700:A0 6.78055e-06
*RES
1 *1102:Q *122:4 9.3 
2 *122:4 *1090:A1 33.3496 
3 *122:4 *1700:A0 26.5526 
*END

*D_NET *123 0.00101801
*CONN
*I *1701:A0 I *D sky130_fd_sc_hd__mux2_1
*I *1091:A1 I *D sky130_fd_sc_hd__mux2_1
*I *1103:Q O *D sky130_fd_sc_hd__dfrtp_1
*CAP
1 *1701:A0 0.000122536
2 *1091:A1 6.6241e-05
3 *1103:Q 0.00012564
4 *123:8 0.000314416
5 *1091:A1 *759:14 5.66157e-05
6 *1701:A0 *759:14 0.000277524
7 *123:8 *1763:D 0
8 *1103:D *123:8 5.5033e-05
9 *1763:CLK *1701:A0 0
10 *1763:RESET_B *123:8 0
11 *50:250 *123:8 0
12 *71:16 *1701:A0 0
13 *105:22 *1091:A1 0
14 *105:22 *1701:A0 0
15 *121:10 *1701:A0 0
*RES
1 *1103:Q *123:8 17.3891 
2 *123:8 *1091:A1 15.5574 
3 *123:8 *1701:A0 18.602 
*END

*D_NET *124 0.00217036
*CONN
*I *1702:A0 I *D sky130_fd_sc_hd__mux2_1
*I *1092:A1 I *D sky130_fd_sc_hd__mux2_1
*I *1104:Q O *D sky130_fd_sc_hd__dfrtp_1
*CAP
1 *1702:A0 0.000286663
2 *1092:A1 0.00029666
3 *1104:Q 0
4 *124:4 0.000583322
5 *1092:A1 *1266:S 0.000127368
6 *1092:A1 *298:78 0
7 *1090:A1 *1702:A0 0.000314026
8 *1092:S *1092:A1 2.016e-05
9 *1092:S *1702:A0 3.80953e-06
10 *1099:CLK *1092:A1 0
11 *1099:D *1092:A1 8.07313e-05
12 *1099:D *1702:A0 5.62995e-05
13 *1766:CLK *1702:A0 5.66157e-05
14 *67:18 *1702:A0 0
15 *67:94 *1702:A0 0
16 *71:14 *1702:A0 0.000139907
17 *71:16 *1702:A0 3.34295e-05
18 *71:64 *1702:A0 0.000153769
19 *94:28 *1702:A0 1.76039e-05
20 *105:16 *1702:A0 0
*RES
1 *1104:Q *124:4 9.3 
2 *124:4 *1092:A1 27.2852 
3 *124:4 *1702:A0 29.81 
*END

*D_NET *125 0.00127405
*CONN
*I *1703:A0 I *D sky130_fd_sc_hd__mux2_1
*I *1093:A1 I *D sky130_fd_sc_hd__mux2_1
*I *1105:Q O *D sky130_fd_sc_hd__dfrtp_1
*CAP
1 *1703:A0 0.000283712
2 *1093:A1 0
3 *1105:Q 0.000102864
4 *125:8 0.000386576
5 *1703:A0 *1094:A1 0
6 *1703:A0 *1767:D 0.000222784
7 *1093:S *1703:A0 5.71472e-05
8 *1093:S *125:8 1.21289e-05
9 *1767:RESET_B *1703:A0 5.19842e-06
10 *1767:RESET_B *125:8 7.85796e-05
11 *1777:CLK *1703:A0 0
12 *100:42 *125:8 0.000125057
*RES
1 *1105:Q *125:8 13.904 
2 *125:8 *1093:A1 9.3 
3 *125:8 *1703:A0 18.5822 
*END

*D_NET *126 0.0035285
*CONN
*I *1704:A0 I *D sky130_fd_sc_hd__mux2_1
*I *1094:A1 I *D sky130_fd_sc_hd__mux2_1
*I *1106:Q O *D sky130_fd_sc_hd__dfrtp_1
*CAP
1 *1704:A0 0.000674178
2 *1094:A1 0.000371081
3 *1106:Q 2.03398e-05
4 *126:6 0.0010656
5 *1704:A0 *1703:A1 0.000206979
6 *1704:A0 *1703:S 0
7 *1704:A0 *1716:B 0.000146941
8 *1704:A0 *696:14 0
9 *1093:S *1094:A1 0
10 *1094:S *1094:A1 0.000364837
11 *1105:D *1094:A1 0
12 *1106:D *1094:A1 7.45454e-05
13 *1703:A0 *1094:A1 0
14 *1768:RESET_B *1704:A0 0
15 *1781:CLK *1704:A0 0
16 *1781:CLK *126:6 0
17 *1785:CLK *1704:A0 2.89114e-05
18 *70:14 *1094:A1 0.000575092
19 *72:74 *1704:A0 0
*RES
1 *1106:Q *126:6 10.0426 
2 *126:6 *1094:A1 25.5625 
3 *126:6 *1704:A0 38.1021 
*END

*D_NET *127 0.00318844
*CONN
*I *1084:B1 I *D sky130_fd_sc_hd__a21o_1
*I *1696:A I *D sky130_fd_sc_hd__nand2_1
*I *1759:A3 I *D sky130_fd_sc_hd__o311a_1
*I *1096:Q O *D sky130_fd_sc_hd__dfrtp_1
*CAP
1 *1084:B1 0
2 *1696:A 0.000338411
3 *1759:A3 0.000359227
4 *1096:Q 0.000119371
5 *127:14 0.000855949
6 *127:10 0.000277682
7 *1696:A *1695:B 6.55694e-05
8 *1696:A *1730:A 5.70551e-05
9 *1696:A *1730:B 0
10 *1696:A *1751:A1 0
11 *1696:A *752:91 1.92905e-05
12 *1696:A *753:69 6.45381e-05
13 *1696:A *753:73 0
14 *1759:A3 *1695:A 0
15 *1759:A3 *1759:B1 7.71151e-05
16 *1759:A3 *753:40 5.71472e-05
17 *1759:A3 *753:46 0
18 *1759:A3 *765:21 0
19 *127:10 *1081:A 9.02232e-05
20 *127:10 *765:32 3.93247e-05
21 *127:10 *765:36 1.21289e-05
22 *127:10 *765:62 1.77294e-05
23 *127:14 *765:21 0
24 *1083:A2 *127:14 9.69119e-06
25 *1084:A2 *127:10 0.000140933
26 *1085:A_N *127:10 9.80173e-05
27 *1098:CLK *1696:A 2.27416e-05
28 *1098:D *1696:A 0.000238804
29 *1098:D *127:14 7.07676e-05
30 *50:107 *1759:A3 0
31 *67:12 *1696:A 0
32 *67:12 *127:10 0.000130801
33 *116:10 *1696:A 9.00795e-06
34 *116:10 *127:14 1.69115e-05
*RES
1 *1096:Q *127:10 15.3644 
2 *127:10 *127:14 9.302 
3 *127:14 *1759:A3 23.5525 
4 *127:14 *1696:A 26.9436 
5 *127:10 *1084:B1 9.3 
*END

*D_NET *128 0.0123584
*CONN
*I *1246:C I *D sky130_fd_sc_hd__nand3_1
*I *1197:B I *D sky130_fd_sc_hd__nand3b_1
*I *1301:D_N I *D sky130_fd_sc_hd__nor4b_1
*I *1175:C I *D sky130_fd_sc_hd__nand3b_1
*I *1186:C I *D sky130_fd_sc_hd__nand3b_1
*I *1208:A I *D sky130_fd_sc_hd__nand3_1
*I *1237:B I *D sky130_fd_sc_hd__nand4b_1
*I *1134:X O *D sky130_fd_sc_hd__lpflow_isobufsrc_1
*CAP
1 *1246:C 1.94445e-05
2 *1197:B 0.000133562
3 *1301:D_N 2.23854e-05
4 *1175:C 0.000139457
5 *1186:C 2.29022e-05
6 *1208:A 0.000159787
7 *1237:B 0
8 *1134:X 0.000303896
9 *128:67 0.000319825
10 *128:61 0.000475923
11 *128:46 0.000285706
12 *128:42 0.000856602
13 *128:27 0.00109108
14 *128:16 0.000494525
15 *128:14 0.000625863
16 *1175:C *1175:A_N 8.957e-05
17 *1175:C *1175:B 1.02504e-05
18 *1175:C *1256:A 4.46231e-06
19 *1175:C *1283:A 0.000160913
20 *1175:C *1283:B 0.000216755
21 *1175:C *1283:C_N 4.13496e-05
22 *1175:C *1301:B 5.03772e-05
23 *1186:C *1185:A 1.88266e-05
24 *1186:C *493:63 9.54798e-06
25 *1197:B *1198:C 4.87953e-05
26 *1197:B *1256:A 4.81734e-05
27 *1197:B *1424:D 6.91168e-05
28 *1208:A *1136:A1 8.22857e-05
29 *1208:A *1139:A1 0
30 *1208:A *1344:D 4.73205e-05
31 *1208:A *257:30 0
32 *1208:A *294:12 0.000414872
33 *1208:A *491:47 0
34 *1246:C *304:12 4.19535e-05
35 *128:14 *1352:D 0.000190948
36 *128:14 *490:30 0
37 *128:14 *491:28 0.000501872
38 *128:16 *1238:S 0.000879865
39 *128:16 *303:8 0.000346724
40 *128:16 *490:30 0
41 *128:16 *491:28 0.00173716
42 *128:27 *1237:C 6.42095e-05
43 *128:27 *257:30 0.000228558
44 *128:27 *426:12 0.000112985
45 *128:27 *491:28 8.43535e-06
46 *128:27 *492:32 0
47 *128:42 *294:12 0.000122754
48 *128:42 *304:12 7.4607e-05
49 *128:42 *490:40 0.000379299
50 *128:42 *491:47 0
51 *128:42 *493:55 8.16684e-05
52 *128:42 *493:63 5.36313e-05
53 *128:46 *257:30 9.11102e-06
54 *128:46 *304:12 0.00021471
55 *128:46 *490:40 4.74316e-05
56 *128:61 *1185:A 4.79104e-05
57 *128:61 *1424:D 9.15621e-06
58 *128:61 *257:30 4.04359e-05
59 *128:61 *292:10 5.95717e-05
60 *128:61 *490:44 3.43988e-06
61 *128:61 *490:87 3.43988e-06
62 *128:67 *1175:A_N 2.05612e-05
63 *128:67 *1236:A_N 0.000183726
64 *128:67 *1256:A 5.39166e-06
65 *128:67 *1292:B 5.33005e-05
66 *128:67 *1301:B 1.98839e-05
67 *128:67 *1424:D 0.00013674
68 *128:67 *292:10 0
69 *128:67 *490:44 1.08359e-05
70 *1352:CLK *128:16 5.52238e-05
71 *1424:CLK *1175:C 1.91414e-05
72 *1424:CLK *1197:B 8.41437e-05
73 *1511:A_N *128:14 8.81278e-05
74 *82:20 *128:14 0.000157906
75 *110:16 *128:42 0
*RES
1 *1134:X *128:14 31.4436 
2 *128:14 *128:16 22.9457 
3 *128:16 *1237:B 9.3 
4 *128:16 *128:27 10.8119 
5 *128:27 *1208:A 21.1268 
6 *128:27 *128:42 8.64963 
7 *128:42 *128:46 3.77575 
8 *128:46 *1186:C 14.6045 
9 *128:46 *128:61 5.65597 
10 *128:61 *128:67 11.0842 
11 *128:67 *1175:C 24.5872 
12 *128:67 *1301:D_N 9.89406 
13 *128:61 *1197:B 19.1466 
14 *128:42 *1246:C 18.0145 
*END

*D_NET *129 0.00105588
*CONN
*I *1328:D I *D sky130_fd_sc_hd__dfxtp_1
*I *1177:X O *D sky130_fd_sc_hd__mux2_1
*CAP
1 *1328:D 0.000178323
2 *1177:X 0.000178323
3 *1328:D *1135:A0 1.02504e-05
4 *1328:D *1177:S 0.000107231
5 *1328:D *1182:S 1.53273e-05
6 *1328:D *322:8 7.46814e-05
7 *1328:CLK *1328:D 0.000144186
8 *1689:CLK *1328:D 0
9 *79:165 *1328:D 0
10 *79:176 *1328:D 0.00034756
*RES
1 *1177:X *1328:D 35.9478 
*END

*D_NET *130 0.00130922
*CONN
*I *1329:D I *D sky130_fd_sc_hd__dfxtp_1
*I *1178:X O *D sky130_fd_sc_hd__mux2_1
*CAP
1 *1329:D 0.000241618
2 *1178:X 0.000241618
3 *1329:D *1135:S0 4.13573e-05
4 *1329:D *1140:A3 1.72408e-05
5 *1329:D *1140:S1 0.000132231
6 *1329:D *1393:D 0.000372962
7 *1329:D *257:10 4.61002e-05
8 *1329:D *442:145 2.39876e-05
9 *1329:D *442:152 0.000135465
10 *108:194 *1329:D 5.66384e-05
*RES
1 *1178:X *1329:D 39.2647 
*END

*D_NET *131 0.000752953
*CONN
*I *1330:D I *D sky130_fd_sc_hd__dfxtp_1
*I *1179:X O *D sky130_fd_sc_hd__mux2_1
*CAP
1 *1330:D 0.000201275
2 *1179:X 0.000201275
3 *1330:D *1276:S 0.000161868
4 *108:223 *1330:D 0.000188535
*RES
1 *1179:X *1330:D 26.8736 
*END

*D_NET *132 0.000596667
*CONN
*I *1331:D I *D sky130_fd_sc_hd__dfxtp_1
*I *1180:X O *D sky130_fd_sc_hd__mux2_1
*CAP
1 *1331:D 8.52167e-05
2 *1180:X 8.52167e-05
3 *1331:D *306:23 0.000153769
4 *1331:D *308:12 9.60875e-05
5 *1331:D *442:122 3.81e-05
6 *1331:D *442:134 5.80706e-06
7 *1331:CLK *1331:D 1.64343e-05
8 *107:148 *1331:D 8.32171e-05
9 *107:165 *1331:D 3.28188e-05
*RES
1 *1180:X *1331:D 31.8389 
*END

*D_NET *133 0.000544626
*CONN
*I *1332:D I *D sky130_fd_sc_hd__dfxtp_1
*I *1181:X O *D sky130_fd_sc_hd__mux2_1
*CAP
1 *1332:D 0.00019336
2 *1181:X 0.00019336
3 *1332:D *1155:A0 0
4 *1332:D *273:8 0
5 *1332:D *273:10 0.000157906
6 *1332:D *277:10 0
7 *92:16 *1332:D 0
8 *92:24 *1332:D 0
*RES
1 *1181:X *1332:D 33.3735 
*END

*D_NET *134 0.00121969
*CONN
*I *1333:D I *D sky130_fd_sc_hd__dfxtp_1
*I *1182:X O *D sky130_fd_sc_hd__mux2_1
*CAP
1 *1333:D 0.000255556
2 *1182:X 0.000255556
3 *1333:D *1160:A0 0
4 *1333:D *1182:A0 0
5 *1333:D *1228:S 0.00044366
6 *1333:D *1233:S 0.000103323
7 *1333:D *327:8 3.69047e-06
8 *1333:D *335:10 0.000157906
9 *1368:CLK *1333:D 0
*RES
1 *1182:X *1333:D 37.3587 
*END

*D_NET *135 0.00108785
*CONN
*I *1334:D I *D sky130_fd_sc_hd__dfxtp_1
*I *1183:X O *D sky130_fd_sc_hd__mux2_1
*CAP
1 *1334:D 0.000277855
2 *1183:X 0.000277855
3 *1334:D *1263:A0 5.52302e-05
4 *1334:D *1281:A0 0.000173345
5 *1334:D *1281:S 7.01199e-06
6 *1334:D *1398:D 0.000107404
7 *1334:D *277:30 1.78447e-05
8 *1334:D *328:8 1.58163e-05
9 *1334:D *336:8 0.000155484
*RES
1 *1183:X *1334:D 37.928 
*END

*D_NET *136 0.00122364
*CONN
*I *1335:D I *D sky130_fd_sc_hd__dfxtp_1
*I *1184:X O *D sky130_fd_sc_hd__mux2_1
*CAP
1 *1335:D 0.000267927
2 *1184:X 0.000267927
3 *1335:D *1170:A2 1.85861e-05
4 *1335:D *1170:A3 9.9471e-06
5 *1335:D *1184:A0 0
6 *1335:D *290:32 0.000304839
7 *1335:D *329:8 0
8 *1335:D *444:314 0
9 *1335:D *444:328 0
10 *1264:A1 *1335:D 0
11 *1371:CLK *1335:D 0.00035441
*RES
1 *1184:X *1335:D 37.6062 
*END

*D_NET *137 0.000750985
*CONN
*I *1336:D I *D sky130_fd_sc_hd__dfxtp_1
*I *1188:X O *D sky130_fd_sc_hd__mux2_1
*CAP
1 *1336:D 0.00029343
2 *1188:X 0.00029343
3 *1336:D *1167:S0 0
4 *1336:D *1188:A0 4.81157e-05
5 *1336:D *1416:D 8.81278e-05
6 *1336:D *277:30 0
7 *1336:D *444:310 2.78822e-05
*RES
1 *1188:X *1336:D 36.2201 
*END

*D_NET *138 0.00102431
*CONN
*I *1337:D I *D sky130_fd_sc_hd__dfxtp_1
*I *1189:X O *D sky130_fd_sc_hd__mux2_1
*CAP
1 *1337:D 0.000143538
2 *1189:X 0.000143538
3 *1337:D *1189:A0 0
4 *1337:D *1189:S 0
5 *1337:D *283:22 9.25014e-06
6 *1337:D *286:22 0.000363994
7 *1337:CLK *1337:D 0.000146853
8 *85:33 *1337:D 0.000217141
*RES
1 *1189:X *1337:D 34.2399 
*END

*D_NET *139 0.000732541
*CONN
*I *1338:D I *D sky130_fd_sc_hd__dfxtp_1
*I *1190:X O *D sky130_fd_sc_hd__mux2_1
*CAP
1 *1338:D 0.000302163
2 *1190:X 0.000302163
3 *1338:D *1190:S 9.71197e-05
4 *1338:D *1289:A0 2.40379e-05
5 *1338:D *1434:D 0
6 *1419:CLK *1338:D 7.05689e-06
7 *1434:CLK *1338:D 0
*RES
1 *1190:X *1338:D 26.9973 
*END

*D_NET *140 0.00191256
*CONN
*I *1339:D I *D sky130_fd_sc_hd__dfxtp_1
*I *1191:X O *D sky130_fd_sc_hd__mux2_1
*CAP
1 *1339:D 0.000719211
2 *1191:X 0.000719211
3 *1339:D *1191:A0 1.74352e-05
4 *1339:D *1221:A1 0.000326828
5 *1339:D *269:16 0.00010096
6 *1339:D *278:20 0
7 *1339:D *299:32 0
8 *1339:D *421:12 2.89114e-05
9 *1435:CLK *1339:D 0
10 *87:21 *1339:D 0
11 *107:98 *1339:D 0
12 *107:135 *1339:D 0
*RES
1 *1191:X *1339:D 47.3093 
*END

*D_NET *141 0.000303943
*CONN
*I *1340:D I *D sky130_fd_sc_hd__dfxtp_1
*I *1192:X O *D sky130_fd_sc_hd__mux2_1
*CAP
1 *1340:D 7.21648e-05
2 *1192:X 7.21648e-05
3 *1340:D *1192:A0 0
4 *1340:D *1420:D 0
5 *1340:D *309:47 0.000159613
6 *108:74 *1340:D 0
*RES
1 *1192:X *1340:D 30.527 
*END

*D_NET *142 0.000397285
*CONN
*I *1341:D I *D sky130_fd_sc_hd__dfxtp_1
*I *1193:X O *D sky130_fd_sc_hd__mux2_1
*CAP
1 *1341:D 0.000192653
2 *1193:X 0.000192653
3 *1341:D *1307:A0 1.1979e-05
4 *1341:D *293:32 0
5 *86:109 *1341:D 0
6 *86:118 *1341:D 0
*RES
1 *1193:X *1341:D 32.8042 
*END

*D_NET *143 0.00123938
*CONN
*I *1342:D I *D sky130_fd_sc_hd__dfxtp_1
*I *1194:X O *D sky130_fd_sc_hd__mux2_1
*CAP
1 *1342:D 0.000298267
2 *1194:X 0.000298267
3 *1342:D *1306:A0 8.32242e-05
4 *1342:D *1309:S 0
5 *1342:D *283:8 0
6 *1342:D *311:56 0
7 *1342:D *311:73 0
8 *1342:D *444:172 0.000194436
9 *114:112 *1342:D 0.00036518
*RES
1 *1194:X *1342:D 38.4478 
*END

*D_NET *144 0.00118725
*CONN
*I *1343:D I *D sky130_fd_sc_hd__dfxtp_1
*I *1195:X O *D sky130_fd_sc_hd__mux2_1
*CAP
1 *1343:D 0.000315523
2 *1195:X 0.000315523
3 *78:33 *1343:D 2.31791e-05
4 *78:35 *1343:D 0.000174257
5 *78:37 *1343:D 0.000358764
6 *78:83 *1343:D 0
*RES
1 *1195:X *1343:D 39.3575 
*END

*D_NET *145 0.00192423
*CONN
*I *1344:D I *D sky130_fd_sc_hd__dfxtp_1
*I *1199:X O *D sky130_fd_sc_hd__mux2_1
*CAP
1 *1344:D 0.000361237
2 *1199:X 0.000361237
3 *1344:D *1136:A0 7.65354e-05
4 *1344:D *1139:A1 0
5 *1344:D *1199:A1 7.48301e-06
6 *1344:D *1237:C 0.00050879
7 *1344:D *257:30 0.000555576
8 *1344:D *259:16 0
9 *1208:A *1344:D 4.73205e-05
10 *104:66 *1344:D 0
11 *104:82 *1344:D 6.05161e-06
*RES
1 *1199:X *1344:D 42.136 
*END

*D_NET *146 0.000816892
*CONN
*I *1345:D I *D sky130_fd_sc_hd__dfxtp_1
*I *1200:X O *D sky130_fd_sc_hd__mux2_1
*CAP
1 *1345:D 0.000238856
2 *1200:X 0.000238856
3 *1345:D *1142:S1 3.69047e-06
4 *1345:D *1200:S 5.33005e-05
5 *1345:D *1425:D 0
6 *1345:D *312:77 1.76204e-05
7 *1345:D *339:10 0
8 *1345:D *347:10 0.000105689
9 *1345:D *435:10 0
10 *1142:S0 *1345:D 0.000153054
11 *105:48 *1345:D 5.82527e-06
*RES
1 *1200:X *1345:D 34.6359 
*END

*D_NET *147 0.00053959
*CONN
*I *1346:D I *D sky130_fd_sc_hd__dfxtp_1
*I *1201:X O *D sky130_fd_sc_hd__mux2_1
*CAP
1 *1346:D 8.53172e-05
2 *1201:X 8.53172e-05
3 *1346:D *1146:A0 8.65694e-05
4 *1346:D *310:18 1.46624e-05
5 *1346:D *443:88 0.000157899
6 *1146:S0 *1346:D 0.000109826
7 *106:180 *1346:D 0
*RES
1 *1201:X *1346:D 31.4862 
*END

*D_NET *148 0.000833769
*CONN
*I *1347:D I *D sky130_fd_sc_hd__dfxtp_1
*I *1202:X O *D sky130_fd_sc_hd__mux2_1
*CAP
1 *1347:D 0.000280978
2 *1202:X 0.000280978
3 *1347:D *1153:A0 1.34703e-05
4 *1347:D *1153:S1 2.55587e-05
5 *1347:D *429:12 0.000113424
6 *1347:D *437:10 0
7 *1347:D *444:520 0.000119358
8 *96:16 *1347:D 0
*RES
1 *1202:X *1347:D 36.5171 
*END

*D_NET *149 0.000934248
*CONN
*I *1348:D I *D sky130_fd_sc_hd__dfxtp_1
*I *1203:X O *D sky130_fd_sc_hd__mux2_1
*CAP
1 *1348:D 0.000201322
2 *1203:X 0.000201322
3 *1348:D *1157:A0 2.09869e-05
4 *1348:D *273:26 1.48494e-05
5 *1348:D *296:62 0.000447651
6 *1348:D *430:10 4.81157e-05
7 *1348:D *445:154 0
8 *108:48 *1348:D 0
9 *110:16 *1348:D 0
*RES
1 *1203:X *1348:D 35.3785 
*END

*D_NET *150 0.00182104
*CONN
*I *1349:D I *D sky130_fd_sc_hd__dfxtp_1
*I *1204:X O *D sky130_fd_sc_hd__mux2_1
*CAP
1 *1349:D 0.000246467
2 *1204:X 0.000246467
3 *1349:D *1162:A2 0.000184774
4 *1349:D *1162:A3 9.9471e-06
5 *1349:D *1316:A0 0.000157906
6 *1349:D *312:16 0.000397196
7 *1349:D *439:10 0.000170113
8 *90:66 *1349:D 3.60533e-05
9 *107:96 *1349:D 0.000372115
*RES
1 *1204:X *1349:D 40.2795 
*END

*D_NET *151 0.000348695
*CONN
*I *1350:D I *D sky130_fd_sc_hd__dfxtp_1
*I *1205:X O *D sky130_fd_sc_hd__mux2_1
*CAP
1 *1350:D 0.00014248
2 *1205:X 0.00014248
3 *1350:CLK *1350:D 3.18676e-05
4 *85:66 *1350:D 0
5 *110:97 *1350:D 3.18676e-05
*RES
1 *1205:X *1350:D 23.4577 
*END

*D_NET *152 0.00154039
*CONN
*I *1351:D I *D sky130_fd_sc_hd__dfxtp_1
*I *1206:X O *D sky130_fd_sc_hd__mux2_1
*CAP
1 *1351:D 0.000200885
2 *1206:X 0.000200885
3 *1351:D *1168:A0 0
4 *1351:D *1169:A1 1.78447e-05
5 *1351:D *1294:S 4.65751e-05
6 *1351:D *1447:D 0.000392997
7 *1206:A0 *1351:D 0.000539224
8 *1351:CLK *1351:D 0.000141981
*RES
1 *1206:X *1351:D 38.9676 
*END

*D_NET *153 0.00177258
*CONN
*I *1352:D I *D sky130_fd_sc_hd__dfxtp_1
*I *1209:X O *D sky130_fd_sc_hd__mux2_1
*CAP
1 *1352:D 0.000367792
2 *1209:X 0.000367792
3 *1352:D *1138:A1 0.000176062
4 *1352:D *1209:A1 5.00841e-06
5 *1352:D *314:10 7.08094e-05
6 *1352:D *402:12 0.000136056
7 *1352:D *443:30 0.000258363
8 *1352:D *444:34 4.19624e-06
9 *1352:D *444:40 4.60232e-06
10 *1352:D *491:28 0.000190948
11 *81:12 *1352:D 0
12 *81:20 *1352:D 0
13 *128:14 *1352:D 0.000190948
*RES
1 *1209:X *1352:D 42.0617 
*END

*D_NET *154 0.00139874
*CONN
*I *1353:D I *D sky130_fd_sc_hd__dfxtp_1
*I *1210:X O *D sky130_fd_sc_hd__mux2_1
*CAP
1 *1353:D 0.000189093
2 *1210:X 0.000189093
3 *1353:D *1210:S 5.24968e-05
4 *1353:D *1216:S 5.00962e-05
5 *1353:D *1267:S 0.000108111
6 *1353:D *298:86 0
7 *1353:D *315:10 0.000186669
8 *1094:A0 *1353:D 0.000623185
9 *100:42 *1353:D 0
*RES
1 *1210:X *1353:D 37.6557 
*END

*D_NET *155 0.00104469
*CONN
*I *1354:D I *D sky130_fd_sc_hd__dfxtp_1
*I *1211:X O *D sky130_fd_sc_hd__mux2_1
*CAP
1 *1354:D 0.00016316
2 *1211:X 0.00016316
3 *1354:D *1215:S 6.57677e-05
4 *1354:D *316:10 4.31253e-05
5 *1354:CLK *1354:D 0.000444991
6 *98:16 *1354:D 0.000164482
7 *111:18 *1354:D 0
*RES
1 *1211:X *1354:D 35.7993 
*END

*D_NET *156 0.00200655
*CONN
*I *1355:D I *D sky130_fd_sc_hd__dfxtp_1
*I *1212:X O *D sky130_fd_sc_hd__mux2_1
*CAP
1 *1355:D 0.000390909
2 *1212:X 0.000390909
3 *1355:D *1212:A1 5.52302e-05
4 *1355:D *1379:D 0.000103974
5 *1355:D *270:24 0.000349361
6 *1355:D *317:10 4.73471e-05
7 *1355:D *373:6 1.58163e-05
8 *1104:CLK *1355:D 0
9 *97:12 *1355:D 0.000653009
10 *114:14 *1355:D 0
*RES
1 *1212:X *1355:D 43.1756 
*END

*D_NET *157 0.00120344
*CONN
*I *1356:D I *D sky130_fd_sc_hd__dfxtp_1
*I *1213:X O *D sky130_fd_sc_hd__mux2_1
*CAP
1 *1356:D 0.000275662
2 *1213:X 0.000275662
3 *1356:D *1213:A1 1.92905e-05
4 *1356:D *318:6 1.58163e-05
5 *1091:A0 *1356:D 0.000617011
6 *1380:CLK *1356:D 0
*RES
1 *1213:X *1356:D 27.8142 
*END

*D_NET *158 0.000953122
*CONN
*I *1357:D I *D sky130_fd_sc_hd__dfxtp_1
*I *1214:X O *D sky130_fd_sc_hd__mux2_1
*CAP
1 *1357:D 0.000162808
2 *1214:X 0.000162808
3 *1357:D *298:20 0.000102303
4 *1357:D *442:58 2.35858e-05
5 *81:28 *1357:D 0.000143491
6 *109:115 *1357:D 0.000286318
7 *111:12 *1357:D 7.18069e-05
*RES
1 *1214:X *1357:D 34.1904 
*END

*D_NET *159 0.000507508
*CONN
*I *1358:D I *D sky130_fd_sc_hd__dfxtp_1
*I *1215:X O *D sky130_fd_sc_hd__mux2_1
*CAP
1 *1358:D 0.000120698
2 *1215:X 0.000120698
3 *1358:D *1144:A2 0.000107688
4 *1358:D *1272:S 0.000103193
5 *1358:CLK *1358:D 5.52302e-05
*RES
1 *1215:X *1358:D 24.027 
*END

*D_NET *160 0.00161725
*CONN
*I *1359:D I *D sky130_fd_sc_hd__dfxtp_1
*I *1216:X O *D sky130_fd_sc_hd__mux2_1
*CAP
1 *1359:D 0.000305013
2 *1216:X 0.000305013
3 *1359:D *1173:S1 2.40379e-05
4 *1359:D *1216:A1 0.00018037
5 *1359:D *1245:A1 0
6 *1359:D *1321:S 0.00043259
7 *1359:D *288:18 8.32171e-05
8 *1359:D *321:10 0.00016092
9 *1359:D *444:67 0
10 *1359:D *444:73 6.87841e-05
11 *1143:S0 *1359:D 4.00276e-06
12 *100:20 *1359:D 5.33005e-05
13 *114:47 *1359:D 0
*RES
1 *1216:X *1359:D 40.0567 
*END

*D_NET *161 0.000738426
*CONN
*I *1360:D I *D sky130_fd_sc_hd__dfxtp_1
*I *1218:X O *D sky130_fd_sc_hd__mux2_1
*CAP
1 *1360:D 0.000186768
2 *1218:X 0.000186768
3 *1360:D *1218:S 0
4 *1360:D *293:8 3.54129e-05
5 *1360:D *299:14 0
6 *1360:D *309:8 5.49489e-05
7 *1360:D *309:10 0.000126054
8 *1360:D *386:10 5.8955e-05
9 *1360:CLK *1360:D 8.95186e-05
*RES
1 *1218:X *1360:D 35.1743 
*END

*D_NET *162 0.00130786
*CONN
*I *1361:D I *D sky130_fd_sc_hd__dfxtp_1
*I *1219:X O *D sky130_fd_sc_hd__mux2_1
*CAP
1 *1361:D 0.000271408
2 *1219:X 0.000271408
3 *1361:D *1141:S1 0
4 *1361:D *1169:A2 2.54492e-05
5 *1361:D *1308:S 0.000248486
6 *1361:D *286:22 0.000322387
7 *1361:D *387:10 0.000105689
8 *1361:D *444:141 2.16719e-05
9 *1361:D *444:246 4.13573e-05
10 *1189:A1 *1361:D 0
*RES
1 *1219:X *1361:D 38.2993 
*END

*D_NET *163 0.000648955
*CONN
*I *1362:D I *D sky130_fd_sc_hd__dfxtp_1
*I *1220:X O *D sky130_fd_sc_hd__mux2_1
*CAP
1 *1362:D 0.000174534
2 *1220:X 0.000174534
3 *1362:D *273:10 0.000157906
4 *1362:D *283:8 0
5 *1362:D *444:206 0.000141981
6 *1150:S0 *1362:D 0
7 *108:70 *1362:D 0
*RES
1 *1220:X *1362:D 33.3735 
*END

*D_NET *164 0.0023851
*CONN
*I *1363:D I *D sky130_fd_sc_hd__dfxtp_1
*I *1221:X O *D sky130_fd_sc_hd__mux2_1
*CAP
1 *1363:D 0
2 *1221:X 0.000663324
3 *164:16 0.000663324
4 *164:16 *1223:S 8.98664e-05
5 *164:16 *1287:A0 5.7616e-05
6 *164:16 *1305:A0 0.000103041
7 *164:16 *1419:D 7.29531e-05
8 *164:16 *265:8 0
9 *164:16 *278:20 0.000532064
10 *164:16 *285:26 0
11 *164:16 *309:24 0
12 *164:16 *383:6 0.000186669
13 *164:16 *413:6 2.51343e-06
14 *164:16 *444:304 0
15 *1150:S0 *164:16 1.37292e-05
*RES
1 *1221:X *164:16 40.9053 
2 *164:16 *1363:D 9.3 
*END

*D_NET *165 0.000942478
*CONN
*I *1364:D I *D sky130_fd_sc_hd__dfxtp_1
*I *1222:X O *D sky130_fd_sc_hd__mux2_1
*CAP
1 *1364:D 0.000256239
2 *1222:X 0.000256239
3 *1364:D *1156:A2 2.85826e-05
4 *1364:D *1156:A3 1.05999e-05
5 *1364:D *1306:A0 4.89268e-05
6 *1364:D *273:10 9.04243e-05
7 *1364:D *283:8 4.7024e-05
8 *1364:D *293:59 0
9 *1364:D *390:10 5.90443e-06
10 *1364:D *444:192 1.40306e-05
11 *1364:D *444:206 0.000184507
*RES
1 *1222:X *1364:D 37.0369 
*END

*D_NET *166 0.000868744
*CONN
*I *1365:D I *D sky130_fd_sc_hd__dfxtp_1
*I *1223:X O *D sky130_fd_sc_hd__mux2_1
*CAP
1 *1365:D 0.000150481
2 *1223:X 0.000150481
3 *1365:D *1161:A0 0.000170221
4 *1365:D *1161:S0 5.66551e-05
5 *1365:D *278:20 0.000150406
6 *1365:D *283:8 0.000103974
7 *1365:D *383:6 7.28627e-05
8 *109:194 *1365:D 1.36635e-05
*RES
1 *1223:X *1365:D 34.1656 
*END

*D_NET *167 0.00157751
*CONN
*I *1366:D I *D sky130_fd_sc_hd__dfxtp_1
*I *1224:X O *D sky130_fd_sc_hd__mux2_1
*CAP
1 *1366:D 0.00016075
2 *1224:X 0.00016075
3 *1366:D *1165:A0 1.02504e-05
4 *1366:D *1224:A1 5.59013e-05
5 *1366:D *239:14 2.26424e-05
6 *1366:D *283:22 0
7 *1290:A1 *1366:D 0.000278574
8 *1366:CLK *1366:D 0.000576429
9 *85:37 *1366:D 0
10 *110:46 *1366:D 0.000312215
*RES
1 *1224:X *1366:D 37.0864 
*END

*D_NET *168 0.00127316
*CONN
*I *1367:D I *D sky130_fd_sc_hd__dfxtp_1
*I *1225:X O *D sky130_fd_sc_hd__mux2_1
*CAP
1 *1367:D 0.000188128
2 *1225:X 0.000188128
3 *1367:D *1225:A1 0.000155476
4 *1225:A0 *1367:D 0
5 *1309:A1 *1367:D 0
6 *1438:CLK *1367:D 0.000535566
7 *111:76 *1367:D 6.81335e-05
8 *111:80 *1367:D 0.000137733
*RES
1 *1225:X *1367:D 37.3587 
*END

*D_NET *169 0.000519366
*CONN
*I *1368:D I *D sky130_fd_sc_hd__dfxtp_1
*I *1228:X O *D sky130_fd_sc_hd__mux2_1
*CAP
1 *1368:D 0.000164
2 *1228:X 0.000164
3 *1368:D *1182:A0 0
4 *1368:D *1182:S 5.20904e-05
5 *1368:D *1228:A0 9.87245e-05
6 *1368:D *1228:S 4.0552e-05
7 *1368:CLK *1368:D 0
*RES
1 *1228:X *1368:D 33.3674 
*END

*D_NET *170 0.00148593
*CONN
*I *1369:D I *D sky130_fd_sc_hd__dfxtp_1
*I *1229:X O *D sky130_fd_sc_hd__mux2_1
*CAP
1 *1369:D 0.000351186
2 *1229:X 0.000351186
3 *1369:D *1229:S 0.000228558
4 *1369:D *1264:S 4.46186e-06
5 *1369:D *1276:A0 8.32171e-05
6 *1369:D *290:59 3.69047e-06
7 *1369:D *306:31 1.76204e-05
8 *1181:A1 *1369:D 0
9 *1276:A1 *1369:D 0.00027338
10 *1369:CLK *1369:D 1.64343e-05
11 *79:29 *1369:D 0
12 *104:157 *1369:D 0.000156196
13 *108:198 *1369:D 0
*RES
1 *1229:X *1369:D 40.7003 
*END

*D_NET *171 0.000971623
*CONN
*I *1370:D I *D sky130_fd_sc_hd__dfxtp_1
*I *1230:X O *D sky130_fd_sc_hd__mux2_1
*CAP
1 *1370:D 0.000481186
2 *1230:X 0.000481186
3 *1370:D *1410:D 0
4 *1370:D *301:70 0
5 *1370:D *301:91 0
6 *1370:D *308:46 9.25014e-06
7 *1370:CLK *1370:D 0
8 *79:51 *1370:D 0
9 *79:73 *1370:D 0
*RES
1 *1230:X *1370:D 40.1063 
*END

*D_NET *172 0.000877339
*CONN
*I *1371:D I *D sky130_fd_sc_hd__dfxtp_1
*I *1231:X O *D sky130_fd_sc_hd__mux2_1
*CAP
1 *1371:D 0.000301065
2 *1231:X 0.000301065
3 *1371:D *257:10 0
4 *1371:D *444:397 0.000275209
5 *104:157 *1371:D 0
*RES
1 *1231:X *1371:D 36.4676 
*END

*D_NET *173 0.000779814
*CONN
*I *1372:D I *D sky130_fd_sc_hd__dfxtp_1
*I *1232:X O *D sky130_fd_sc_hd__mux2_1
*CAP
1 *1372:D 0.00026366
2 *1232:X 0.00026366
3 *1372:D *1412:D 0.000157991
4 *1372:D *301:62 9.45019e-05
5 *1372:CLK *1372:D 0
6 *92:101 *1372:D 0
*RES
1 *1232:X *1372:D 36.4676 
*END

*D_NET *174 0.000786467
*CONN
*I *1373:D I *D sky130_fd_sc_hd__dfxtp_1
*I *1233:X O *D sky130_fd_sc_hd__mux2_1
*CAP
1 *1373:D 0.000252709
2 *1233:X 0.000252709
3 *1373:D *1413:D 1.07719e-05
4 *1373:CLK *1373:D 5.52238e-05
5 *79:73 *1373:D 1.76135e-05
6 *79:84 *1373:D 0.00019744
*RES
1 *1233:X *1373:D 36.3439 
*END

*D_NET *175 0.000604328
*CONN
*I *1374:D I *D sky130_fd_sc_hd__dfxtp_1
*I *1234:X O *D sky130_fd_sc_hd__mux2_1
*CAP
1 *1374:D 0.000237159
2 *1234:X 0.000237159
3 *1374:CLK *1374:D 0.00013001
*RES
1 *1234:X *1374:D 27.4429 
*END

*D_NET *176 0.000511756
*CONN
*I *1375:D I *D sky130_fd_sc_hd__dfxtp_1
*I *1235:X O *D sky130_fd_sc_hd__mux2_1
*CAP
1 *1375:D 0.000186673
2 *1235:X 0.000186673
3 *1375:D *1235:A0 1.12479e-05
4 *92:61 *1375:D 0.000127163
*RES
1 *1235:X *1375:D 24.5963 
*END

*D_NET *177 0.00110271
*CONN
*I *1376:D I *D sky130_fd_sc_hd__dfxtp_1
*I *1238:X O *D sky130_fd_sc_hd__mux2_1
*CAP
1 *1376:D 0.000170373
2 *1238:X 0.000170373
3 *1376:D *1238:A1 3.06878e-06
4 *1376:D *1238:S 5.33005e-05
5 *1376:D *445:60 0.000154235
6 *1376:D *445:80 0
7 *1376:D *491:28 0.000108652
8 *94:28 *1376:D 0.000253217
9 *104:66 *1376:D 0.000189492
*RES
1 *1238:X *1376:D 26.7498 
*END

*D_NET *178 0.0010362
*CONN
*I *1377:D I *D sky130_fd_sc_hd__dfxtp_1
*I *1239:X O *D sky130_fd_sc_hd__mux2_1
*CAP
1 *1377:D 0.000317314
2 *1239:X 0.000317314
3 *1377:D *1143:A2 0
4 *1377:D *1239:S 2.51343e-06
5 *1377:D *1401:D 0
6 *1377:D *264:16 1.37861e-05
7 *1377:D *303:51 9.99644e-06
8 *1377:D *303:55 0.000301696
9 *1377:D *395:12 5.71472e-05
10 *100:42 *1377:D 1.64343e-05
*RES
1 *1239:X *1377:D 38.5716 
*END

*D_NET *179 0.000380095
*CONN
*I *1378:D I *D sky130_fd_sc_hd__dfxtp_1
*I *1240:X O *D sky130_fd_sc_hd__mux2_1
*CAP
1 *1378:D 0.000117158
2 *1240:X 0.000117158
3 *1378:D *1240:A1 0
4 *1378:D *444:520 6.53227e-05
5 *1378:CLK *1378:D 1.64343e-05
6 *96:16 *1378:D 2.72967e-05
7 *114:242 *1378:D 3.67257e-05
*RES
1 *1240:X *1378:D 31.4181 
*END

*D_NET *180 0.00146773
*CONN
*I *1379:D I *D sky130_fd_sc_hd__dfxtp_1
*I *1241:X O *D sky130_fd_sc_hd__mux2_1
*CAP
1 *1379:D 0.000312962
2 *1241:X 0.000312962
3 *1379:D *1212:A1 0.00013059
4 *1379:D *1241:A1 0.000122078
5 *1379:D *298:82 0
6 *1379:D *317:10 1.02504e-05
7 *1379:D *373:6 0.000256582
8 *1089:A0 *1379:D 7.84272e-05
9 *1212:A0 *1379:D 0
10 *1355:D *1379:D 0.000103974
11 *1379:CLK *1379:D 0.000139907
12 *107:24 *1379:D 0
*RES
1 *1241:X *1379:D 39.8092 
*END

*D_NET *181 0.00058528
*CONN
*I *1380:D I *D sky130_fd_sc_hd__dfxtp_1
*I *1242:X O *D sky130_fd_sc_hd__mux2_1
*CAP
1 *1380:D 0.000148664
2 *1242:X 0.000148664
3 *1380:D *1158:A0 1.02504e-05
4 *1380:D *1158:A1 1.84708e-05
5 *1380:D *1213:A1 0
6 *1380:D *1241:S 0
7 *1380:D *276:16 5.52302e-05
8 *1380:D *374:10 7.98913e-06
9 *1242:A0 *1380:D 5.31541e-05
10 *1380:CLK *1380:D 0.000142856
*RES
1 *1242:X *1380:D 32.8537 
*END

*D_NET *182 0.000502628
*CONN
*I *1381:D I *D sky130_fd_sc_hd__dfxtp_1
*I *1243:X O *D sky130_fd_sc_hd__mux2_1
*CAP
1 *1381:D 7.94522e-05
2 *1243:X 7.94522e-05
3 *1381:D *1163:A3 8.32242e-05
4 *1381:D *1271:A0 8.32171e-05
5 *1381:D *307:109 0.00010096
6 *1381:CLK *1381:D 1.64343e-05
7 *109:115 *1381:D 5.98882e-05
*RES
1 *1243:X *1381:D 31.8389 
*END

*D_NET *183 0.0014141
*CONN
*I *1382:D I *D sky130_fd_sc_hd__dfxtp_1
*I *1244:X O *D sky130_fd_sc_hd__mux2_1
*CAP
1 *1382:D 0.000165182
2 *1244:X 0.000165182
3 *1382:D *1169:A0 0.000446921
4 *1382:D *263:14 0
5 *1382:D *288:18 0.000531604
6 *1382:D *376:12 0.000105208
7 *101:16 *1382:D 0
*RES
1 *1244:X *1382:D 36.5171 
*END

*D_NET *184 0.00119559
*CONN
*I *1383:D I *D sky130_fd_sc_hd__dfxtp_1
*I *1245:X O *D sky130_fd_sc_hd__mux2_1
*CAP
1 *1383:D 0.000280839
2 *1245:X 0.000280839
3 *1383:D *1273:A0 4.00074e-05
4 *1383:D *1327:A1 0.000132452
5 *1383:D *1407:D 0.000153769
6 *1383:D *288:18 1.64343e-05
7 *1383:D *401:10 5.43491e-05
8 *1383:D *409:10 2.07158e-05
9 *1383:D *444:92 3.67257e-05
10 *1245:A0 *1383:D 0
11 *89:14 *1383:D 1.46717e-05
12 *89:20 *1383:D 0.000159915
13 *100:20 *1383:D 4.87669e-06
*RES
1 *1245:X *1383:D 38.5716 
*END

*D_NET *185 0.000780795
*CONN
*I *1384:D I *D sky130_fd_sc_hd__dfxtp_1
*I *1248:X O *D sky130_fd_sc_hd__mux2_1
*CAP
1 *1384:D 0.000238744
2 *1248:X 0.000238744
3 *1384:D *1208:C 0
4 *1384:D *1237:C 0
5 *1384:D *1293:A0 7.67542e-05
6 *1384:D *296:10 9.14522e-05
7 *1384:D *297:33 5.18845e-05
8 *1384:D *307:20 8.32171e-05
9 *1384:D *313:10 0
*RES
1 *1248:X *1384:D 35.6013 
*END

*D_NET *186 0.000758234
*CONN
*I *1385:D I *D sky130_fd_sc_hd__dfxtp_1
*I *1249:X O *D sky130_fd_sc_hd__mux2_1
*CAP
1 *1385:D 0.000202751
2 *1249:X 0.000202751
3 *1385:D *1249:A0 1.23419e-06
4 *1385:D *1249:S 0.000148105
5 *1385:D *1425:D 8.04913e-05
6 *1385:D *312:77 0.000106467
7 *88:24 *1385:D 0
8 *88:28 *1385:D 0
9 *114:60 *1385:D 1.64343e-05
*RES
1 *1249:X *1385:D 35.3785 
*END

*D_NET *187 0.000711447
*CONN
*I *1386:D I *D sky130_fd_sc_hd__dfxtp_1
*I *1250:X O *D sky130_fd_sc_hd__mux2_1
*CAP
1 *1386:D 0.000202643
2 *1250:X 0.000202643
3 *1386:D *285:26 0
4 *1386:D *348:10 0
5 *1295:A1 *1386:D 0
6 *1386:CLK *1386:D 0.000275631
7 *108:68 *1386:D 3.05288e-05
*RES
1 *1250:X *1386:D 34.3636 
*END

*D_NET *188 0.000647503
*CONN
*I *1387:D I *D sky130_fd_sc_hd__dfxtp_1
*I *1251:X O *D sky130_fd_sc_hd__mux2_1
*CAP
1 *1387:D 0.00014491
2 *1251:X 0.00014491
3 *1387:D *1251:S 0.000124046
4 *1387:D *1427:D 0.000152191
5 *1387:D *269:16 8.14455e-05
*RES
1 *1251:X *1387:D 33.3735 
*END

*D_NET *189 0.00104156
*CONN
*I *1388:D I *D sky130_fd_sc_hd__dfxtp_1
*I *1252:X O *D sky130_fd_sc_hd__mux2_1
*CAP
1 *1388:D 0.000178408
2 *1252:X 0.000178408
3 *1388:D *1252:S 0.000187999
4 *1388:D *285:26 0.000189929
5 *1388:D *312:42 0
6 *1146:S0 *1388:D 0.000133012
7 *114:173 *1388:D 0.000173804
*RES
1 *1252:X *1388:D 35.329 
*END

*D_NET *190 0.00102993
*CONN
*I *1389:D I *D sky130_fd_sc_hd__dfxtp_1
*I *1253:X O *D sky130_fd_sc_hd__mux2_1
*CAP
1 *1389:D 0.00013291
2 *1253:X 0.00013291
3 *1389:D *1162:S1 7.86746e-05
4 *1389:D *311:14 0.000299512
5 *87:15 *1389:D 0.000185794
6 *87:19 *1389:D 0.000153769
7 *107:96 *1389:D 4.63595e-05
*RES
1 *1253:X *1389:D 35.329 
*END

*D_NET *191 0.000444327
*CONN
*I *1390:D I *D sky130_fd_sc_hd__dfxtp_1
*I *1254:X O *D sky130_fd_sc_hd__mux2_1
*CAP
1 *1390:D 0.000175608
2 *1254:X 0.000175608
3 *1390:D *1299:S 0
4 *1390:D *1430:D 8.58217e-05
5 *85:55 *1390:D 7.28909e-06
6 *85:66 *1390:D 0
7 *110:97 *1390:D 0
*RES
1 *1254:X *1390:D 32.8042 
*END

*D_NET *192 0.000530186
*CONN
*I *1391:D I *D sky130_fd_sc_hd__dfxtp_1
*I *1255:X O *D sky130_fd_sc_hd__mux2_1
*CAP
1 *1391:D 0.000111611
2 *1255:X 0.000111611
3 *1391:D *1254:S 0.000149059
4 *1391:D *1300:A0 0
5 *1391:D *310:45 0
6 *1391:D *444:141 0.000157906
*RES
1 *1255:X *1391:D 32.2349 
*END

*D_NET *193 0.00194189
*CONN
*I *1392:D I *D sky130_fd_sc_hd__dfxtp_1
*I *1257:X O *D sky130_fd_sc_hd__mux2_1
*CAP
1 *1392:D 0.000298077
2 *1257:X 0.000298077
3 *1392:D *1135:A0 0.000255052
4 *1392:D *1177:S 0.00023662
5 *1392:D *1257:A0 0.000133012
6 *1392:D *257:10 0
7 *1392:D *330:10 0.000157899
8 *1257:A1 *1392:D 0
9 *1392:CLK *1392:D 0.000272676
10 *79:150 *1392:D 0
11 *104:157 *1392:D 3.69865e-05
12 *104:163 *1392:D 0.00017573
13 *104:189 *1392:D 7.77652e-05
*RES
1 *1257:X *1392:D 43.5469 
*END

*D_NET *194 0.00143782
*CONN
*I *1393:D I *D sky130_fd_sc_hd__dfxtp_1
*I *1258:X O *D sky130_fd_sc_hd__mux2_1
*CAP
1 *1393:D 0.0002261
2 *1258:X 0.0002261
3 *1393:D *1140:S1 9.22054e-05
4 *1393:D *1145:S0 6.42095e-05
5 *1393:D *1229:A0 5.95099e-05
6 *1393:D *257:10 0.000297468
7 *1393:D *306:31 1.72894e-05
8 *1329:D *1393:D 0.000372962
9 *105:221 *1393:D 6.2683e-05
10 *108:194 *1393:D 1.92905e-05
*RES
1 *1258:X *1393:D 40.2795 
*END

*D_NET *195 0.000740108
*CONN
*I *1394:D I *D sky130_fd_sc_hd__dfxtp_1
*I *1259:X O *D sky130_fd_sc_hd__mux2_1
*CAP
1 *1394:D 0.000123385
2 *1259:X 0.000123385
3 *1394:D *1160:S0 0.000153769
4 *1394:D *306:68 9.41642e-05
5 *1277:A1 *1394:D 2.89016e-05
6 *79:43 *1394:D 4.11223e-05
7 *106:57 *1394:D 2.16129e-05
8 *106:70 *1394:D 0.000153769
*RES
1 *1259:X *1394:D 32.798 
*END

*D_NET *196 0.00124093
*CONN
*I *1395:D I *D sky130_fd_sc_hd__dfxtp_1
*I *1260:X O *D sky130_fd_sc_hd__mux2_1
*CAP
1 *1395:D 0.000314824
2 *1260:X 0.000314824
3 *1395:D *1152:A1 0
4 *1395:D *1152:S1 0
5 *1395:D *1260:A0 0
6 *1395:D *261:14 0.000108714
7 *1395:D *365:8 0.000127673
8 *1395:D *444:397 0
9 *1132:A *1395:D 2.34423e-05
10 *1395:CLK *1395:D 0.000351454
*RES
1 *1260:X *1395:D 38.027 
*END

*D_NET *197 0.00166874
*CONN
*I *1396:D I *D sky130_fd_sc_hd__dfxtp_1
*I *1261:X O *D sky130_fd_sc_hd__mux2_1
*CAP
1 *1396:D 0.000450877
2 *1261:X 0.000450877
3 *1396:D *1155:A3 9.33978e-07
4 *1396:D *1155:S0 0
5 *1396:D *1279:A0 2.15245e-05
6 *1396:D *277:10 0
7 *1396:D *301:62 0.000141981
8 *1396:D *306:45 3.67142e-05
9 *1396:D *334:14 0
10 *1396:D *366:10 0
11 *1396:D *444:328 5.57967e-05
12 *1396:D *444:336 0.000108111
13 *1330:CLK *1396:D 0
14 *92:26 *1396:D 0.000258011
15 *92:28 *1396:D 0.000143911
*RES
1 *1261:X *1396:D 42.4577 
*END

*D_NET *198 0.00113094
*CONN
*I *1397:D I *D sky130_fd_sc_hd__dfxtp_1
*I *1262:X O *D sky130_fd_sc_hd__mux2_1
*CAP
1 *1397:D 0.000370182
2 *1262:X 0.000370182
3 *1397:D *1233:A0 6.25878e-05
4 *1397:D *1262:S 2.89016e-05
5 *1397:D *1413:D 0
6 *1397:D *301:97 6.72808e-05
7 *1397:D *367:10 0
8 *1262:A1 *1397:D 9.90431e-05
9 *1333:CLK *1397:D 0.000116324
10 *1368:CLK *1397:D 1.64343e-05
11 *109:59 *1397:D 0
*RES
1 *1262:X *1397:D 39.735 
*END

*D_NET *199 0.00121897
*CONN
*I *1398:D I *D sky130_fd_sc_hd__dfxtp_1
*I *1263:X O *D sky130_fd_sc_hd__mux2_1
*CAP
1 *1398:D 0.000292042
2 *1263:X 0.000292042
3 *1398:D *1167:A2 0
4 *1398:D *1234:A0 0.000188743
5 *1398:D *277:30 9.89637e-05
6 *1334:D *1398:D 0.000107404
7 *110:241 *1398:D 0.00023978
*RES
1 *1263:X *1398:D 38.9181 
*END

*D_NET *200 0.00069623
*CONN
*I *1399:D I *D sky130_fd_sc_hd__dfxtp_1
*I *1264:X O *D sky130_fd_sc_hd__mux2_1
*CAP
1 *1399:D 0.000177498
2 *1264:X 0.000177498
3 *1399:D *290:32 7.0758e-05
4 *1264:A1 *1399:D 0
5 *1371:CLK *1399:D 0
6 *92:16 *1399:D 0.000270477
*RES
1 *1264:X *1399:D 33.5221 
*END

*D_NET *201 0.00201984
*CONN
*I *1400:D I *D sky130_fd_sc_hd__dfxtp_1
*I *1266:X O *D sky130_fd_sc_hd__mux2_1
*CAP
1 *1400:D 0.000471532
2 *1266:X 0.000471532
3 *1400:D *1209:A1 0.00010096
4 *1400:D *1209:S 3.34366e-05
5 *1400:D *1266:A0 2.8266e-06
6 *1400:D *402:12 2.27416e-05
7 *1400:D *443:20 6.09688e-05
8 *1400:D *444:40 0
9 *1092:A0 *1400:D 5.04021e-05
10 *1209:A0 *1400:D 0.000345387
11 *81:20 *1400:D 0.000317239
12 *104:30 *1400:D 0.00014282
13 *104:49 *1400:D 0
14 *114:14 *1400:D 0
*RES
1 *1266:X *1400:D 45.2795 
*END

*D_NET *202 0.000757837
*CONN
*I *1401:D I *D sky130_fd_sc_hd__dfxtp_1
*I *1267:X O *D sky130_fd_sc_hd__mux2_1
*CAP
1 *1401:D 0.000280993
2 *1267:X 0.000280993
3 *1401:D *1143:A3 0
4 *1401:D *1239:A1 0
5 *1401:D *264:16 0.000110919
6 *1401:D *395:12 0
7 *1401:D *403:10 8.49318e-05
8 *1377:D *1401:D 0
9 *105:30 *1401:D 0
*RES
1 *1267:X *1401:D 35.9478 
*END

*D_NET *203 0.000415758
*CONN
*I *1402:D I *D sky130_fd_sc_hd__dfxtp_1
*I *1268:X O *D sky130_fd_sc_hd__mux2_1
*CAP
1 *1402:D 8.63007e-05
2 *1268:X 8.63007e-05
3 *1402:D *307:34 0.000109826
4 *1268:A1 *1402:D 0
5 *108:40 *1402:D 0.000133331
*RES
1 *1268:X *1402:D 31.2139 
*END

*D_NET *204 0.00123762
*CONN
*I *1403:D I *D sky130_fd_sc_hd__dfxtp_1
*I *1269:X O *D sky130_fd_sc_hd__mux2_1
*CAP
1 *1403:D 0.000268026
2 *1269:X 0.000268026
3 *1403:D *1323:A1 4.18378e-05
4 *1403:D *307:109 1.40306e-05
5 *1403:D *313:37 0
6 *1381:CLK *1403:D 5.11571e-05
7 *91:94 *1403:D 9.27779e-05
8 *96:16 *1403:D 0
9 *97:12 *1403:D 1.40306e-05
10 *107:18 *1403:D 0.000264137
11 *107:24 *1403:D 0.000223592
*RES
1 *1269:X *1403:D 38.8686 
*END

*D_NET *205 0.00121103
*CONN
*I *1404:D I *D sky130_fd_sc_hd__dfxtp_1
*I *1270:X O *D sky130_fd_sc_hd__mux2_1
*CAP
1 *1404:D 0.000223564
2 *1270:X 0.000223564
3 *1404:D *1324:A1 1.28139e-05
4 *1404:D *276:16 0.000104534
5 *1404:D *398:12 0.000103974
6 *1158:S0 *1404:D 0.000153054
7 *1173:S0 *1404:D 3.17148e-05
8 *1270:A1 *1404:D 9.02251e-05
9 *108:32 *1404:D 0.000119689
10 *114:26 *1404:D 0.000147893
*RES
1 *1270:X *1404:D 37.5567 
*END

*D_NET *206 0.000635729
*CONN
*I *1405:D I *D sky130_fd_sc_hd__dfxtp_1
*I *1271:X O *D sky130_fd_sc_hd__mux2_1
*CAP
1 *1405:D 0.000115833
2 *1271:X 0.000115833
3 *1405:D *1154:S0 7.90187e-05
4 *1405:D *271:28 7.90187e-05
5 *1405:D *296:114 6.09682e-05
6 *99:14 *1405:D 0.000185057
*RES
1 *1271:X *1405:D 32.8042 
*END

*D_NET *207 0.000734968
*CONN
*I *1406:D I *D sky130_fd_sc_hd__dfxtp_1
*I *1272:X O *D sky130_fd_sc_hd__mux2_1
*CAP
1 *1406:D 0.000123275
2 *1272:X 0.000123275
3 *1406:D *1144:A2 0.000274612
4 *1406:D *445:154 0
5 *88:112 *1406:D 0
6 *105:58 *1406:D 0.000153884
7 *110:26 *1406:D 5.99221e-05
*RES
1 *1272:X *1406:D 33.1013 
*END

*D_NET *208 0.00253176
*CONN
*I *1407:D I *D sky130_fd_sc_hd__dfxtp_1
*I *1273:X O *D sky130_fd_sc_hd__mux2_1
*CAP
1 *1407:D 0.000480642
2 *1273:X 0.000480642
3 *1407:D *1144:A0 8.25843e-06
4 *1407:D *1273:A0 0.000471384
5 *1407:D *313:64 0
6 *1094:A0 *1407:D 4.00276e-06
7 *1127:A *1407:D 3.42879e-05
8 *1383:D *1407:D 0.000153769
9 *1407:CLK *1407:D 0.000233742
10 *68:53 *1407:D 2.06741e-05
11 *89:12 *1407:D 0
12 *100:20 *1407:D 0.000116648
13 *111:47 *1407:D 2.15245e-05
14 *114:47 *1407:D 0.000506182
*RES
1 *1273:X *1407:D 47.8786 
*END

*D_NET *209 0.000512129
*CONN
*I *1408:D I *D sky130_fd_sc_hd__dfxtp_1
*I *1275:X O *D sky130_fd_sc_hd__mux2_1
*CAP
1 *1408:D 0.000146675
2 *1275:X 0.000146675
3 *1408:D *1257:S 3.63866e-05
4 *1408:D *1259:A0 2.8266e-06
5 *1408:D *1275:S 5.33334e-05
6 *1408:D *277:10 0
7 *1408:D *290:74 0
8 *79:150 *1408:D 8.95186e-05
9 *109:44 *1408:D 3.67142e-05
*RES
1 *1275:X *1408:D 32.3773 
*END

*D_NET *210 0.000296219
*CONN
*I *1409:D I *D sky130_fd_sc_hd__dfxtp_1
*I *1276:X O *D sky130_fd_sc_hd__mux2_1
*CAP
1 *1409:D 8.85999e-05
2 *1276:X 8.85999e-05
3 *1409:D *1276:A0 0
4 *1409:D *265:8 0
5 *79:29 *1409:D 5.95099e-05
6 *106:36 *1409:D 5.95099e-05
*RES
1 *1276:X *1409:D 30.2547 
*END

*D_NET *211 0.000774859
*CONN
*I *1410:D I *D sky130_fd_sc_hd__dfxtp_1
*I *1277:X O *D sky130_fd_sc_hd__mux2_1
*CAP
1 *1410:D 0.000235248
2 *1277:X 0.000235248
3 *1370:D *1410:D 0
4 *1410:CLK *1410:D 5.71472e-05
5 *79:49 *1410:D 0.000247216
*RES
1 *1277:X *1410:D 28.5815 
*END

*D_NET *212 0.00221877
*CONN
*I *1411:D I *D sky130_fd_sc_hd__dfxtp_1
*I *1278:X O *D sky130_fd_sc_hd__mux2_1
*CAP
1 *1411:D 0
2 *1278:X 0.000818559
3 *212:14 0.000818559
4 *212:14 *1152:A0 0.000175519
5 *212:14 *308:12 9.85396e-06
6 *1260:A1 *212:14 0.000315779
7 *1278:A1 *212:14 4.87953e-05
8 *1395:CLK *212:14 0
9 *92:8 *212:14 0
10 *107:178 *212:14 3.17067e-05
*RES
1 *1278:X *212:14 41.9202 
2 *212:14 *1411:D 9.3 
*END

*D_NET *213 0.00150158
*CONN
*I *1412:D I *D sky130_fd_sc_hd__dfxtp_1
*I *1279:X O *D sky130_fd_sc_hd__mux2_1
*CAP
1 *1412:D 0.000231672
2 *1279:X 0.000231672
3 *1412:D *301:62 0.000429308
4 *1412:D *308:46 4.23086e-05
5 *1372:CLK *1412:D 0
6 *1372:D *1412:D 0.000157991
7 *92:32 *1412:D 0.000133005
8 *92:101 *1412:D 0.000275625
*RES
1 *1279:X *1412:D 39.834 
*END

*D_NET *214 0.0018819
*CONN
*I *1413:D I *D sky130_fd_sc_hd__dfxtp_1
*I *1280:X O *D sky130_fd_sc_hd__mux2_1
*CAP
1 *1413:D 0.000422679
2 *1280:X 0.000422679
3 *1413:D *1233:A0 0.000109826
4 *1280:A1 *1413:D 0
5 *1333:CLK *1413:D 0
6 *1373:D *1413:D 1.07719e-05
7 *1397:D *1413:D 0
8 *1413:CLK *1413:D 0.000157906
9 *79:73 *1413:D 0.000128868
10 *79:84 *1413:D 0.000629173
11 *79:88 *1413:D 0
12 *109:59 *1413:D 0
*RES
1 *1280:X *1413:D 44.7845 
*END

*D_NET *215 0.000747223
*CONN
*I *1414:D I *D sky130_fd_sc_hd__dfxtp_1
*I *1281:X O *D sky130_fd_sc_hd__mux2_1
*CAP
1 *1414:D 0.000302397
2 *1281:X 0.000302397
3 *1334:CLK *1414:D 0.000130488
4 *86:118 *1414:D 1.19402e-05
*RES
1 *1281:X *1414:D 37.1297 
*END

*D_NET *216 0.000752011
*CONN
*I *1415:D I *D sky130_fd_sc_hd__dfxtp_1
*I *1282:X O *D sky130_fd_sc_hd__mux2_1
*CAP
1 *1415:D 0.000208145
2 *1282:X 0.000208145
3 *1415:D *277:10 0
4 *1415:D *308:16 5.71472e-05
5 *1235:A1 *1415:D 0.000278574
*RES
1 *1282:X *1415:D 34.6854 
*END

*D_NET *217 0.000982161
*CONN
*I *1416:D I *D sky130_fd_sc_hd__dfxtp_1
*I *1284:X O *D sky130_fd_sc_hd__mux2_1
*CAP
1 *1416:D 0.000350581
2 *1284:X 0.000350581
3 *1416:D *1188:A0 0
4 *1416:D *265:8 0
5 *1416:D *277:30 0.000192872
6 *1416:D *444:304 0
7 *1416:D *444:310 0
8 *1336:D *1416:D 8.81278e-05
*RES
1 *1284:X *1416:D 38.6954 
*END

*D_NET *218 0.000980974
*CONN
*I *1417:D I *D sky130_fd_sc_hd__dfxtp_1
*I *1285:X O *D sky130_fd_sc_hd__mux2_1
*CAP
1 *1417:D 0.000250175
2 *1285:X 0.000250175
3 *1417:D *1189:S 6.67621e-05
4 *1417:D *1285:A0 0
5 *1417:D *299:45 4.08289e-05
6 *1417:D *299:49 6.07232e-05
7 *1417:D *311:73 0.000184031
8 *1417:D *444:168 1.11038e-05
9 *1194:A1 *1417:D 0.000117175
*RES
1 *1285:X *1417:D 35.329 
*END

*D_NET *219 0.000448267
*CONN
*I *1418:D I *D sky130_fd_sc_hd__dfxtp_1
*I *1286:X O *D sky130_fd_sc_hd__mux2_1
*CAP
1 *1418:D 0.000153746
2 *1286:X 0.000153746
3 *1362:CLK *1418:D 2.24258e-05
4 *1418:CLK *1418:D 8.82363e-05
5 *86:58 *1418:D 3.01126e-05
*RES
1 *1286:X *1418:D 31.9812 
*END

*D_NET *220 0.00141781
*CONN
*I *1419:D I *D sky130_fd_sc_hd__dfxtp_1
*I *1287:X O *D sky130_fd_sc_hd__mux2_1
*CAP
1 *1419:D 0.000281616
2 *1287:X 0.000281616
3 *1419:D *1287:A0 0
4 *1419:D *1305:A0 0
5 *1419:D *1435:D 1.98382e-05
6 *1419:D *309:24 0.000436887
7 *1150:S0 *1419:D 0.000302417
8 *1363:CLK *1419:D 2.24782e-05
9 *164:16 *1419:D 7.29531e-05
*RES
1 *1287:X *1419:D 38.7449 
*END

*D_NET *221 0.000484109
*CONN
*I *1420:D I *D sky130_fd_sc_hd__dfxtp_1
*I *1288:X O *D sky130_fd_sc_hd__mux2_1
*CAP
1 *1420:D 0.000178083
2 *1288:X 0.000178083
3 *1420:D *1195:S 0
4 *1420:D *309:47 6.58252e-05
5 *1340:CLK *1420:D 0
6 *1340:D *1420:D 0
7 *108:74 *1420:D 6.21186e-05
*RES
1 *1288:X *1420:D 33.3735 
*END

*D_NET *222 0.000945302
*CONN
*I *1421:D I *D sky130_fd_sc_hd__dfxtp_1
*I *1289:X O *D sky130_fd_sc_hd__mux2_1
*CAP
1 *1421:D 0.000314752
2 *1289:X 0.000314752
3 *1421:D *1289:A0 0.000157899
4 *1421:D *1437:D 0
5 *1421:D *293:32 0.000157899
6 *1421:D *309:37 0
7 *1419:CLK *1421:D 0
8 *86:31 *1421:D 0
9 *86:35 *1421:D 0
*RES
1 *1289:X *1421:D 37.3587 
*END

*D_NET *223 0.000825377
*CONN
*I *1422:D I *D sky130_fd_sc_hd__dfxtp_1
*I *1290:X O *D sky130_fd_sc_hd__mux2_1
*CAP
1 *1422:D 0.000232358
2 *1290:X 0.000232358
3 *1422:D *1171:A2 0
4 *1422:D *1195:A0 9.14355e-05
5 *1422:D *1290:A0 0.000130261
6 *1422:D *1291:S 0.000129714
7 *1342:CLK *1422:D 0
8 *78:50 *1422:D 0
9 *78:58 *1422:D 9.25014e-06
*RES
1 *1290:X *1422:D 35.0753 
*END

*D_NET *224 0.000375831
*CONN
*I *1423:D I *D sky130_fd_sc_hd__dfxtp_1
*I *1291:X O *D sky130_fd_sc_hd__mux2_1
*CAP
1 *1423:D 0.000120556
2 *1291:X 0.000120556
3 *1423:CLK *1423:D 0.000134719
*RES
1 *1291:X *1423:D 31.4862 
*END

*D_NET *225 0.000951018
*CONN
*I *1424:D I *D sky130_fd_sc_hd__dfxtp_1
*I *1293:X O *D sky130_fd_sc_hd__mux2_1
*CAP
1 *1424:D 0.000114662
2 *1293:X 0.000114662
3 *1424:D *1236:A_N 0
4 *1424:D *257:30 0.00021175
5 *1424:D *296:10 0.000168963
6 *1424:D *490:44 0.000104492
7 *1197:B *1424:D 6.91168e-05
8 *1424:CLK *1424:D 2.14757e-05
9 *128:61 *1424:D 9.15621e-06
10 *128:67 *1424:D 0.00013674
*RES
1 *1293:X *1424:D 33.5963 
*END

*D_NET *226 0.00156192
*CONN
*I *1425:D I *D sky130_fd_sc_hd__dfxtp_1
*I *1294:X O *D sky130_fd_sc_hd__mux2_1
*CAP
1 *1425:D 0.0005452
2 *1294:X 0.0005452
3 *1425:D *1200:S 7.49425e-05
4 *1425:D *1294:A0 0
5 *1425:D *1294:S 6.23481e-05
6 *1425:D *339:10 0
7 *1425:D *444:127 4.62395e-05
8 *1345:CLK *1425:D 9.31893e-05
9 *1345:D *1425:D 0
10 *1385:D *1425:D 8.04913e-05
11 *1441:CLK *1425:D 3.14147e-05
12 *88:22 *1425:D 0
13 *88:24 *1425:D 0
14 *88:28 *1425:D 0
15 *88:32 *1425:D 8.2899e-05
*RES
1 *1294:X *1425:D 44.0419 
*END

*D_NET *227 0.000647578
*CONN
*I *1426:D I *D sky130_fd_sc_hd__dfxtp_1
*I *1295:X O *D sky130_fd_sc_hd__mux2_1
*CAP
1 *1426:D 0.000178535
2 *1295:X 0.000178535
3 *1426:D *274:18 9.90367e-05
4 *108:68 *1426:D 0.000191471
*RES
1 *1295:X *1426:D 25.8525 
*END

*D_NET *228 0.00121872
*CONN
*I *1427:D I *D sky130_fd_sc_hd__dfxtp_1
*I *1296:X O *D sky130_fd_sc_hd__mux2_1
*CAP
1 *1427:D 0.000375969
2 *1296:X 0.000375969
3 *1427:D *1251:S 0
4 *1427:D *1296:S 1.92905e-05
5 *1427:D *1443:D 0
6 *1427:D *268:22 0
7 *1427:D *269:16 0
8 *1427:D *296:20 0
9 *1427:D *341:10 0
10 *1427:D *445:116 0.000148166
11 *1427:D *445:150 0
12 *1387:D *1427:D 0.000152191
13 *90:51 *1427:D 0.000147136
14 *96:16 *1427:D 0
15 *107:80 *1427:D 0
*RES
1 *1296:X *1427:D 39.2894 
*END

*D_NET *229 0.000732206
*CONN
*I *1428:D I *D sky130_fd_sc_hd__dfxtp_1
*I *1297:X O *D sky130_fd_sc_hd__mux2_1
*CAP
1 *1428:D 0.000118015
2 *1297:X 0.000118015
3 *1428:D *1295:S 8.01182e-05
4 *1428:D *273:26 0.000230799
5 *1428:D *310:24 0
6 *1428:D *310:39 2.97756e-05
7 *1428:D *444:271 0.000155484
*RES
1 *1297:X *1428:D 33.3735 
*END

*D_NET *230 0.000666243
*CONN
*I *1429:D I *D sky130_fd_sc_hd__dfxtp_1
*I *1298:X O *D sky130_fd_sc_hd__mux2_1
*CAP
1 *1429:D 7.62929e-05
2 *1298:X 7.62929e-05
3 *1429:D *261:14 0.000166221
4 *87:21 *1429:D 1.76204e-05
5 *107:96 *1429:D 1.64343e-05
6 *107:98 *1429:D 3.34295e-05
7 *107:135 *1429:D 0.000279953
*RES
1 *1298:X *1429:D 33.0518 
*END

*D_NET *231 0.00131858
*CONN
*I *1430:D I *D sky130_fd_sc_hd__dfxtp_1
*I *1299:X O *D sky130_fd_sc_hd__mux2_1
*CAP
1 *1430:D 0.000460351
2 *1299:X 0.000460351
3 *1430:D *1299:A0 4.45768e-06
4 *1430:D *1299:S 0.000186662
5 *1299:A1 *1430:D 3.14193e-05
6 *1390:CLK *1430:D 0
7 *1390:D *1430:D 8.58217e-05
8 *85:49 *1430:D 0
9 *85:66 *1430:D 8.95186e-05
*RES
1 *1299:X *1430:D 40.8674 
*END

*D_NET *232 0.000864069
*CONN
*I *1431:D I *D sky130_fd_sc_hd__dfxtp_1
*I *1300:X O *D sky130_fd_sc_hd__mux2_1
*CAP
1 *1431:D 0.000137412
2 *1300:X 0.000137412
3 *1431:D *1299:A0 9.81175e-05
4 *1431:D *1299:S 1.08359e-05
5 *85:41 *1431:D 0.000157906
6 *85:43 *1431:D 0.000322387
7 *85:49 *1431:D 0
*RES
1 *1300:X *1431:D 34.933 
*END

*D_NET *233 0.00256505
*CONN
*I *1432:D I *D sky130_fd_sc_hd__dfxtp_1
*I *1302:X O *D sky130_fd_sc_hd__mux2_1
*CAP
1 *1432:D 0.000275842
2 *1302:X 0.000275842
3 *1432:D *1164:A3 9.02232e-05
4 *1432:D *1223:S 0.000575591
5 *1432:D *261:14 0.000369825
6 *1432:D *278:20 0.000116778
7 *1432:CLK *1432:D 0.000662197
8 *107:148 *1432:D 0.000198748
*RES
1 *1302:X *1432:D 45.131 
*END

*D_NET *234 0.00170913
*CONN
*I *1433:D I *D sky130_fd_sc_hd__dfxtp_1
*I *1303:X O *D sky130_fd_sc_hd__mux2_1
*CAP
1 *1433:D 0.000274619
2 *1303:X 0.000274619
3 *1433:D *1141:A0 2.22891e-05
4 *1433:D *1219:S 0.000248173
5 *1433:D *1303:A0 1.04113e-05
6 *1433:D *310:39 0.000108111
7 *1433:D *444:147 7.78179e-05
8 *1433:D *444:168 0.000363257
9 *85:14 *1433:D 0.000149059
10 *105:66 *1433:D 0.000125547
11 *105:76 *1433:D 5.52238e-05
12 *114:173 *1433:D 0
*RES
1 *1303:X *1433:D 41.0716 
*END

*D_NET *235 0.00113079
*CONN
*I *1434:D I *D sky130_fd_sc_hd__dfxtp_1
*I *1304:X O *D sky130_fd_sc_hd__mux2_1
*CAP
1 *1434:D 0.00025431
2 *1304:X 0.00025431
3 *1434:D *1190:S 0
4 *1434:D *311:34 0
5 *1434:D *420:8 0
6 *1286:A1 *1434:D 0.000622172
7 *1338:D *1434:D 0
*RES
1 *1304:X *1434:D 27.8142 
*END

*D_NET *236 0.00142298
*CONN
*I *1435:D I *D sky130_fd_sc_hd__dfxtp_1
*I *1305:X O *D sky130_fd_sc_hd__mux2_1
*CAP
1 *1435:D 0.000362505
2 *1305:X 0.000362505
3 *1435:D *273:10 0.000123814
4 *1435:D *309:24 9.35589e-06
5 *1150:S0 *1435:D 0
6 *1190:A1 *1435:D 3.30309e-05
7 *1339:CLK *1435:D 0
8 *1363:CLK *1435:D 0.000382541
9 *1419:D *1435:D 1.98382e-05
10 *1435:CLK *1435:D 0.000123334
11 *86:8 *1435:D 6.05161e-06
*RES
1 *1305:X *1435:D 41.0654 
*END

*D_NET *237 0.00158815
*CONN
*I *1436:D I *D sky130_fd_sc_hd__dfxtp_1
*I *1306:X O *D sky130_fd_sc_hd__mux2_1
*CAP
1 *1436:D 0.000449275
2 *1306:X 0.000449275
3 *1436:D *1156:A3 0
4 *1436:D *1192:A0 0
5 *1436:D *1288:A0 0
6 *1117:A *1436:D 0.000167216
7 *1306:A1 *1436:D 5.71472e-05
8 *78:10 *1436:D 5.39629e-06
9 *78:23 *1436:D 0
10 *108:70 *1436:D 0.000234761
11 *114:124 *1436:D 0.000147015
12 *114:133 *1436:D 7.80605e-05
*RES
1 *1306:X *1436:D 44.2152 
*END

*D_NET *238 0.000720451
*CONN
*I *1437:D I *D sky130_fd_sc_hd__dfxtp_1
*I *1307:X O *D sky130_fd_sc_hd__mux2_1
*CAP
1 *1437:D 0.000164383
2 *1307:X 0.000164383
3 *1437:D *311:34 0
4 *1421:D *1437:D 0
5 *86:31 *1437:D 0.00013001
6 *86:35 *1437:D 7.03393e-05
7 *86:37 *1437:D 5.83233e-05
8 *86:109 *1437:D 0.000133012
*RES
1 *1307:X *1437:D 34.1161 
*END

*D_NET *239 0.00255293
*CONN
*I *1438:D I *D sky130_fd_sc_hd__dfxtp_1
*I *1308:X O *D sky130_fd_sc_hd__mux2_1
*CAP
1 *1438:D 0
2 *1308:X 0.000521854
3 *239:14 0.000521854
4 *239:14 *1165:A0 7.22594e-05
5 *239:14 *1169:A2 0.000662725
6 *239:14 *1189:S 1.98839e-05
7 *239:14 *1224:A1 5.58941e-05
8 *239:14 *1224:S 6.74669e-05
9 *239:14 *283:22 0.00017091
10 *239:14 *392:10 5.71472e-05
11 *1290:A1 *239:14 0.000134146
12 *1366:D *239:14 2.26424e-05
13 *110:46 *239:14 4.57279e-05
14 *111:76 *239:14 0.000200423
*RES
1 *1308:X *239:14 41.5736 
2 *239:14 *1438:D 9.3 
*END

*D_NET *240 0.00105167
*CONN
*I *1439:D I *D sky130_fd_sc_hd__dfxtp_1
*I *1309:X O *D sky130_fd_sc_hd__mux2_1
*CAP
1 *1439:D 0.000187468
2 *1309:X 0.000187468
3 *1439:D *1171:A1 0
4 *1439:D *1290:A0 5.39166e-06
5 *1439:D *1309:A0 0
6 *1439:D *425:8 0.00018037
7 *1290:A1 *1439:D 8.68489e-05
8 *1342:CLK *1439:D 0.000404121
*RES
1 *1309:X *1439:D 36.0716 
*END

*D_NET *241 0.00143725
*CONN
*I *1440:D I *D sky130_fd_sc_hd__dfxtp_1
*I *1311:X O *D sky130_fd_sc_hd__mux2_1
*CAP
1 *1440:D 0.000203646
2 *1311:X 0.000203646
3 *1440:D *1208:C 0.000181796
4 *1440:D *1248:A0 4.41341e-05
5 *1440:D *1319:B 0.000360308
6 *1440:D *307:20 0
7 *1440:D *313:10 0.000147136
8 *110:16 *1440:D 0.000296581
*RES
1 *1311:X *1440:D 37.6062 
*END

*D_NET *242 0.00121829
*CONN
*I *1441:D I *D sky130_fd_sc_hd__dfxtp_1
*I *1312:X O *D sky130_fd_sc_hd__mux2_1
*CAP
1 *1441:D 0.000542702
2 *1312:X 0.000542702
3 *1441:D *263:14 9.25014e-06
4 *1441:D *312:77 0.000123633
5 *1441:D *427:10 0
6 *1441:D *435:10 0
7 *1345:CLK *1441:D 0
*RES
1 *1312:X *1441:D 43.2993 
*END

*D_NET *243 0.000982749
*CONN
*I *1442:D I *D sky130_fd_sc_hd__dfxtp_1
*I *1313:X O *D sky130_fd_sc_hd__mux2_1
*CAP
1 *1442:D 0.000220016
2 *1313:X 0.000220016
3 *1442:D *1159:A2 2.38281e-05
4 *1442:D *261:14 0.000143889
5 *1442:D *444:271 9.68654e-05
6 *1442:D *444:282 4.92638e-05
7 *87:49 *1442:D 0.000228869
*RES
1 *1313:X *1442:D 37.1607 
*END

*D_NET *244 0.00177798
*CONN
*I *1443:D I *D sky130_fd_sc_hd__dfxtp_1
*I *1314:X O *D sky130_fd_sc_hd__mux2_1
*CAP
1 *1443:D 0.000326135
2 *1314:X 0.000326135
3 *1443:D *1153:A3 5.78571e-05
4 *1443:D *1251:A0 8.31364e-05
5 *1443:D *1296:A0 4.84853e-05
6 *1443:D *268:22 6.14332e-05
7 *1443:D *341:10 2.97756e-05
8 *1443:D *445:116 1.58163e-05
9 *1427:D *1443:D 0
10 *68:20 *1443:D 0.000253469
11 *68:22 *1443:D 0.000507114
12 *90:47 *1443:D 0
13 *96:16 *1443:D 1.53273e-05
14 *107:72 *1443:D 5.33005e-05
*RES
1 *1314:X *1443:D 42.3587 
*END

*D_NET *245 0.00199973
*CONN
*I *1444:D I *D sky130_fd_sc_hd__dfxtp_1
*I *1315:X O *D sky130_fd_sc_hd__mux2_1
*CAP
1 *1444:D 0.000246611
2 *1315:X 0.000246611
3 *1444:D *1157:S1 0.000136194
4 *1444:D *1252:A0 0.000219908
5 *1444:D *1252:S 0.000324889
6 *1444:D *1315:S 0.000140933
7 *1444:D *296:26 0.000141466
8 *1444:D *296:32 0.000263869
9 *1444:D *350:8 0.000132297
10 *1444:D *443:88 5.06983e-05
11 *1315:A1 *1444:D 2.99775e-05
12 *1348:CLK *1444:D 2.41224e-05
13 *1406:CLK *1444:D 9.69119e-06
14 *1444:CLK *1444:D 1.64343e-05
15 *105:58 *1444:D 5.33091e-06
16 *108:54 *1444:D 1.07007e-05
*RES
1 *1315:X *1444:D 42.928 
*END

*D_NET *246 0.00165164
*CONN
*I *1445:D I *D sky130_fd_sc_hd__dfxtp_1
*I *1316:X O *D sky130_fd_sc_hd__mux2_1
*CAP
1 *1445:D 0.000262356
2 *1316:X 0.000262356
3 *1445:D *1253:A0 0.000273897
4 *1445:D *1296:S 1.58163e-05
5 *1445:D *1298:S 6.40103e-05
6 *1445:D *269:16 5.71472e-05
7 *1445:D *310:12 8.15095e-05
8 *1445:D *310:18 0.00011769
9 *1445:D *443:80 0.000287254
10 *1298:A1 *1445:D 5.92278e-05
11 *107:96 *1445:D 0
12 *109:171 *1445:D 0.000170379
*RES
1 *1316:X *1445:D 40.8488 
*END

*D_NET *247 0.000731498
*CONN
*I *1446:D I *D sky130_fd_sc_hd__dfxtp_1
*I *1317:X O *D sky130_fd_sc_hd__mux2_1
*CAP
1 *1446:D 0.000288759
2 *1317:X 0.000288759
3 *1446:D *1168:A1 5.30209e-05
4 *1446:D *1317:A0 0.00010096
5 *1350:CLK *1446:D 0
*RES
1 *1317:X *1446:D 27.3934 
*END

*D_NET *248 0.00146975
*CONN
*I *1447:D I *D sky130_fd_sc_hd__dfxtp_1
*I *1318:X O *D sky130_fd_sc_hd__mux2_1
*CAP
1 *1447:D 0.000253169
2 *1318:X 0.000253169
3 *1447:D *1169:A1 0.000273564
4 *1447:D *1249:S 2.87687e-05
5 *1206:A0 *1447:D 2.16719e-05
6 *1351:D *1447:D 0.000392997
7 *1447:CLK *1447:D 8.52807e-05
8 *110:36 *1447:D 7.32272e-05
9 *111:49 *1447:D 3.90513e-05
10 *111:66 *1447:D 4.88515e-05
*RES
1 *1318:X *1447:D 39.6793 
*END

*D_NET *249 0.00109293
*CONN
*I *1448:D I *D sky130_fd_sc_hd__dfxtp_1
*I *1320:X O *D sky130_fd_sc_hd__mux2_1
*CAP
1 *1448:D 0.000111113
2 *1320:X 0.000111113
3 *1448:D *1139:A0 0.000360308
4 *1448:D *442:58 0.000390959
5 *107:14 *1448:D 9.9486e-05
6 *108:10 *1448:D 1.99492e-05
*RES
1 *1320:X *1448:D 34.2399 
*END

*D_NET *250 0.000412859
*CONN
*I *1449:D I *D sky130_fd_sc_hd__dfxtp_1
*I *1321:X O *D sky130_fd_sc_hd__mux2_1
*CAP
1 *1449:D 0.000160712
2 *1321:X 0.000160712
3 *1449:D *1245:A1 0
4 *1449:D *303:51 9.14355e-05
5 *1321:A0 *1449:D 0
6 *1401:CLK *1449:D 0
*RES
1 *1321:X *1449:D 31.4862 
*END

*D_NET *251 0.000715976
*CONN
*I *1450:D I *D sky130_fd_sc_hd__dfxtp_1
*I *1322:X O *D sky130_fd_sc_hd__mux2_1
*CAP
1 *1450:D 0.000135959
2 *1322:X 0.000135959
3 *1450:D *268:22 9.25014e-06
4 *1450:D *307:34 5.54506e-05
5 *90:23 *1450:D 0.000319444
6 *98:16 *1450:D 0
7 *110:16 *1450:D 5.99125e-05
*RES
1 *1322:X *1450:D 33.6706 
*END

*D_NET *252 0.00120641
*CONN
*I *1451:D I *D sky130_fd_sc_hd__dfxtp_1
*I *1323:X O *D sky130_fd_sc_hd__mux2_1
*CAP
1 *1451:D 0.000145845
2 *1323:X 0.000145845
3 *1451:D *298:38 2.72449e-05
4 *1451:D *303:26 0.000329733
5 *1378:CLK *1451:D 2.30263e-05
6 *1451:CLK *1451:D 5.71472e-05
7 *91:64 *1451:D 7.1933e-05
8 *96:16 *1451:D 2.61099e-05
9 *111:18 *1451:D 0.000379528
*RES
1 *1323:X *1451:D 36.9132 
*END

*D_NET *253 0.00116259
*CONN
*I *1452:D I *D sky130_fd_sc_hd__dfxtp_1
*I *1324:X O *D sky130_fd_sc_hd__mux2_1
*CAP
1 *1452:D 0.000262539
2 *1324:X 0.000262539
3 *1452:D *1215:S 0
4 *1452:D *307:63 0.000255563
5 *1404:CLK *1452:D 0
6 *111:18 *1452:D 0.00038195
*RES
1 *1324:X *1452:D 37.4825 
*END

*D_NET *254 0.00162749
*CONN
*I *1453:D I *D sky130_fd_sc_hd__dfxtp_1
*I *1325:X O *D sky130_fd_sc_hd__mux2_1
*CAP
1 *1453:D 0.00039156
2 *1325:X 0.00039156
3 *1453:D *1164:A0 0
4 *1453:D *1311:S 2.89114e-05
5 *1453:D *1314:S 0
6 *1453:D *1325:A1 2.39173e-05
7 *1453:D *1325:S 9.60939e-05
8 *1453:D *271:28 3.66402e-05
9 *1453:D *312:120 0.000202921
10 *1405:CLK *1453:D 2.77258e-05
11 *81:40 *1453:D 7.05837e-05
12 *104:82 *1453:D 6.12902e-05
13 *104:94 *1453:D 0.00029629
*RES
1 *1325:X *1453:D 42.5815 
*END

*D_NET *255 0.000705425
*CONN
*I *1454:D I *D sky130_fd_sc_hd__dfxtp_1
*I *1326:X O *D sky130_fd_sc_hd__mux2_1
*CAP
1 *1454:D 0.000120154
2 *1326:X 0.000120154
3 *1454:D *1294:S 5.52302e-05
4 *1454:D *444:127 5.33005e-05
5 *88:16 *1454:D 8.42801e-05
6 *88:20 *1454:D 0.000130583
7 *88:22 *1454:D 7.90803e-05
8 *110:30 *1454:D 3.98131e-05
9 *110:36 *1454:D 2.28303e-05
*RES
1 *1326:X *1454:D 33.0023 
*END

*D_NET *256 0.000529745
*CONN
*I *1455:D I *D sky130_fd_sc_hd__dfxtp_1
*I *1327:X O *D sky130_fd_sc_hd__mux2_1
*CAP
1 *1455:D 0.000180123
2 *1327:X 0.000180123
3 *1455:D *263:14 5.07157e-05
4 *1455:D *444:92 1.85861e-05
5 *1166:S0 *1455:D 0
6 *1407:CLK *1455:D 8.48705e-05
7 *114:47 *1455:D 1.53273e-05
8 *114:49 *1455:D 0
*RES
1 *1327:X *1455:D 33.6211 
*END

*D_NET *257 0.0100293
*CONN
*I *1139:A3 I *D sky130_fd_sc_hd__mux4_2
*I *1135:X O *D sky130_fd_sc_hd__mux4_2
*CAP
1 *1139:A3 0
2 *1135:X 0
3 *257:30 0.0014757
4 *257:10 0.0028453
5 *257:6 0.0013696
6 *257:10 *1135:S0 0
7 *257:10 *1140:S1 0
8 *257:10 *1152:S0 2.6949e-05
9 *257:10 *1227:B 2.62984e-05
10 *257:10 *1229:A0 0.000297559
11 *257:10 *1231:A0 0.000121372
12 *257:10 *355:10 0.000399571
13 *257:10 *442:122 0.000100429
14 *257:30 *1136:A1 0
15 *257:30 *1136:A2 1.34703e-05
16 *257:30 *1139:A1 4.58192e-05
17 *257:30 *1185:A 1.85762e-05
18 *257:30 *1227:A 0.000294332
19 *257:30 *1227:B 4.60645e-05
20 *257:30 *1237:C 0.000187461
21 *257:30 *1274:B 2.90824e-05
22 *257:30 *1293:A0 3.42639e-05
23 *257:30 *271:28 0.000281113
24 *257:30 *294:12 0
25 *257:30 *296:10 0.000122888
26 *257:30 *304:12 5.99411e-05
27 *257:30 *442:84 4.49582e-05
28 *257:30 *490:40 0.0002438
29 *257:30 *490:87 4.6025e-06
30 *257:30 *491:28 5.32956e-05
31 *257:30 *491:47 0
32 *257:30 *491:57 0.000163757
33 *257:30 *492:32 0
34 *1208:A *257:30 0
35 *1231:A1 *257:10 0.000154762
36 *1257:A1 *257:10 8.32242e-05
37 *1329:D *257:10 4.61002e-05
38 *1344:D *257:30 0.000555576
39 *1371:D *257:10 0
40 *1392:D *257:10 0
41 *1393:D *257:10 0.000297468
42 *1424:CLK *257:30 9.60939e-05
43 *1424:D *257:30 0.00021175
44 *68:164 *257:10 0
45 *68:179 *257:10 0
46 *92:16 *257:10 0
47 *104:157 *257:10 0
48 *128:27 *257:30 0.000228558
49 *128:46 *257:30 9.11102e-06
50 *128:61 *257:30 4.04359e-05
*RES
1 *1135:X *257:6 13.8 
2 *257:6 *257:10 49.2394 
3 *257:10 *257:30 49.8595 
4 *257:30 *1139:A3 9.3 
*END

*D_NET *258 0.000760751
*CONN
*I *1139:A2 I *D sky130_fd_sc_hd__mux4_2
*I *1136:X O *D sky130_fd_sc_hd__mux4_2
*CAP
1 *1139:A2 0.000120298
2 *1136:X 0.000120298
3 *1139:A2 *1139:A1 7.17136e-05
4 *1139:A2 *1139:S1 5.33005e-05
5 *1139:A2 *1154:S0 3.17148e-05
6 *1139:A2 *259:16 4.0342e-06
7 *1139:A2 *271:28 0.000202835
8 *1139:A2 *298:20 6.20547e-05
9 *104:82 *1139:A2 9.45019e-05
*RES
1 *1136:X *1139:A2 34.1594 
*END

*D_NET *259 0.00501217
*CONN
*I *1139:A1 I *D sky130_fd_sc_hd__mux4_2
*I *1137:X O *D sky130_fd_sc_hd__mux4_2
*CAP
1 *1139:A1 0.00019649
2 *1137:X 0.000875456
3 *259:16 0.00107195
4 *1139:A1 *1136:A1 4.46186e-06
5 *1139:A1 *1139:S1 9.41642e-05
6 *1139:A1 *445:80 9.41642e-05
7 *259:16 *1136:A1 0.000265453
8 *259:16 *1136:A2 0
9 *259:16 *1136:A3 7.52765e-05
10 *259:16 *1175:A_N 0.000104728
11 *259:16 *1217:B 0.000621708
12 *259:16 *1283:B 0
13 *259:16 *1293:A0 0
14 *259:16 *1293:S 2.15245e-05
15 *259:16 *1319:B 0.00033068
16 *259:16 *297:33 0.000183035
17 *259:16 *298:20 2.72859e-05
18 *259:16 *309:8 3.72932e-05
19 *259:16 *311:10 1.92905e-05
20 *259:16 *442:84 0.00060816
21 *259:16 *443:68 0
22 *1139:A2 *1139:A1 7.17136e-05
23 *1139:A2 *259:16 4.0342e-06
24 *1208:A *1139:A1 0
25 *1344:D *1139:A1 0
26 *1344:D *259:16 0
27 *1440:CLK *259:16 0.000137515
28 *104:104 *259:16 1.64362e-05
29 *104:118 *259:16 0.000105533
30 *104:133 *259:16 0
31 *257:30 *1139:A1 4.58192e-05
*RES
1 *1137:X *259:16 49.0972 
2 *259:16 *1139:A1 19.3941 
*END

*D_NET *260 0.00365764
*CONN
*I *1139:A0 I *D sky130_fd_sc_hd__mux4_2
*I *1138:X O *D sky130_fd_sc_hd__mux4_2
*CAP
1 *1139:A0 0.000750342
2 *1138:X 0.000750342
3 *1139:A0 *1138:A1 9.60875e-05
4 *1139:A0 *1138:A2 7.96621e-05
5 *1139:A0 *1138:A3 4.10926e-05
6 *1139:A0 *1138:S1 9.87617e-05
7 *1139:A0 *1199:S 0
8 *1139:A0 *1238:A1 0
9 *1139:A0 *1266:A0 0.000142487
10 *1139:A0 *298:20 1.11474e-05
11 *1139:A0 *370:6 0
12 *1139:A0 *394:6 5.33005e-05
13 *1139:A0 *442:33 0
14 *1139:A0 *442:58 0.000568533
15 *1139:A0 *444:40 1.04066e-05
16 *1139:A0 *445:80 0.000263294
17 *1448:CLK *1139:A0 0.00016834
18 *1448:D *1139:A0 0.000360308
19 *81:32 *1139:A0 0.00026353
*RES
1 *1138:X *1139:A0 47.1397 
*END

*D_NET *261 0.0132515
*CONN
*I *1144:A3 I *D sky130_fd_sc_hd__mux4_2
*I *1140:X O *D sky130_fd_sc_hd__mux4_2
*CAP
1 *1144:A3 0.000185415
2 *1140:X 0.000348199
3 *261:24 0.00125139
4 *261:14 0.00287349
5 *261:12 0.00215571
6 *1144:A3 *1144:S1 0
7 *1144:A3 *307:40 0
8 *1144:A3 *320:10 0
9 *261:12 *1258:A0 1.41029e-05
10 *261:12 *1260:S 0
11 *261:12 *306:23 5.29667e-05
12 *261:12 *323:10 6.50885e-05
13 *261:12 *442:145 0
14 *261:14 *1146:A2 0.000496717
15 *261:14 *1175:A_N 4.92638e-05
16 *261:14 *1175:B 0
17 *261:14 *1180:S 0
18 *261:14 *1191:S 0.000494348
19 *261:14 *1260:A0 0
20 *261:14 *1260:S 0
21 *261:14 *1278:A0 0.000132297
22 *261:14 *1295:A0 7.36267e-05
23 *261:14 *305:22 0
24 *261:14 *305:28 0
25 *261:14 *306:23 0.00132157
26 *261:14 *311:14 0
27 *261:14 *365:8 0.000340752
28 *261:14 *444:271 0
29 *261:14 *444:282 0
30 *261:14 *492:50 0
31 *261:24 *1157:S1 0.000269798
32 *261:24 *1219:S 3.04498e-05
33 *261:24 *1252:S 1.63504e-05
34 *261:24 *1268:A0 0
35 *261:24 *1268:S 0
36 *261:24 *1272:S 0.000184032
37 *261:24 *285:26 0.000118648
38 *261:24 *296:62 0.000343559
39 *261:24 *307:34 0
40 *261:24 *307:63 0.000137874
41 *261:24 *404:10 0
42 *261:24 *438:10 8.3722e-05
43 *1180:A1 *261:14 0
44 *1189:A1 *261:14 0
45 *1258:A1 *261:12 0.000331448
46 *1260:A1 *261:14 0
47 *1348:CLK *261:24 1.58163e-05
48 *1358:CLK *261:24 0
49 *1388:CLK *261:24 0.000210732
50 *1395:D *261:14 0.000108714
51 *1429:D *261:14 0.000166221
52 *1432:D *261:14 0.000369825
53 *1442:D *261:14 0.000143889
54 *1444:CLK *261:24 0
55 *85:139 *261:14 0
56 *88:112 *261:24 0
57 *104:118 *261:14 4.15914e-05
58 *104:133 *261:14 0.000128941
59 *106:26 *261:12 5.71472e-05
60 *106:36 *261:12 6.58013e-05
61 *107:98 *261:14 7.54646e-05
62 *107:104 *261:14 0.000137544
63 *107:135 *261:14 2.78729e-05
64 *107:148 *261:14 0.000229773
65 *107:178 *261:14 0
66 *108:194 *261:12 0
67 *110:230 *261:14 0.00010138
*RES
1 *1140:X *261:12 26.3619 
2 *261:12 *261:14 75.7058 
3 *261:14 *261:24 46.0794 
4 *261:24 *1144:A3 17.7604 
*END

*D_NET *262 0.00372357
*CONN
*I *1144:A2 I *D sky130_fd_sc_hd__mux4_2
*I *1141:X O *D sky130_fd_sc_hd__mux4_2
*CAP
1 *1144:A2 0.000756742
2 *1141:X 0.000756742
3 *1144:A2 *1144:S0 0.000144746
4 *1144:A2 *1174:A2 0
5 *1144:A2 *1174:A3 0
6 *1144:A2 *1174:S1 0
7 *1144:A2 *1215:A1 0.000186662
8 *1144:A2 *1215:S 0.000185643
9 *1144:A2 *1272:S 0
10 *1144:A2 *1303:S 4.58976e-05
11 *1144:A2 *320:10 2.47833e-05
12 *1144:A2 *408:8 9.90431e-05
13 *1144:A2 *445:160 3.32631e-05
14 *1141:S0 *1144:A2 9.41642e-05
15 *1358:CLK *1144:A2 0
16 *1358:D *1144:A2 0.000107688
17 *1406:CLK *1144:A2 3.77662e-05
18 *1406:D *1144:A2 0.000274612
19 *88:112 *1144:A2 0
20 *105:58 *1144:A2 0.000157363
21 *110:20 *1144:A2 1.55953e-05
22 *110:26 *1144:A2 6.13757e-06
23 *110:157 *1144:A2 0.000614033
24 *114:99 *1144:A2 8.46044e-06
25 *114:173 *1144:A2 0.000174232
*RES
1 *1141:X *1144:A2 49.5407 
*END

*D_NET *263 0.00259592
*CONN
*I *1144:A1 I *D sky130_fd_sc_hd__mux4_2
*I *1142:X O *D sky130_fd_sc_hd__mux4_2
*CAP
1 *1144:A1 0
2 *1142:X 0.000675409
3 *263:14 0.000675409
4 *263:14 *1144:S1 9.90431e-05
5 *263:14 *1166:A0 0
6 *263:14 *1200:A1 3.88799e-05
7 *263:14 *1215:S 2.14658e-05
8 *263:14 *1244:A1 0
9 *263:14 *303:34 0.000105567
10 *263:14 *303:40 0.000309787
11 *263:14 *312:77 7.28277e-05
12 *263:14 *376:12 0
13 *263:14 *427:10 4.96906e-05
14 *1244:A0 *263:14 0.00011365
15 *1294:A1 *263:14 0
16 *1382:D *263:14 0
17 *1407:CLK *263:14 0.000176234
18 *1441:D *263:14 9.25014e-06
19 *1455:D *263:14 5.07157e-05
20 *101:16 *263:14 0
21 *111:47 *263:14 0.000197991
22 *114:49 *263:14 0
*RES
1 *1142:X *263:14 42.5575 
2 *263:14 *1144:A1 9.3 
*END

*D_NET *264 0.00425378
*CONN
*I *1144:A0 I *D sky130_fd_sc_hd__mux4_2
*I *1143:X O *D sky130_fd_sc_hd__mux4_2
*CAP
1 *1144:A0 0.000279826
2 *1143:X 0.000665634
3 *264:16 0.00094546
4 *1144:A0 *1267:S 0.000358915
5 *1144:A0 *1273:A0 0.000181796
6 *1144:A0 *1273:S 2.89016e-05
7 *1144:A0 *307:63 0
8 *264:16 *1143:A1 5.52238e-05
9 *264:16 *1143:A2 9.25014e-06
10 *264:16 *1143:A3 0.000201803
11 *264:16 *1143:S1 9.90431e-05
12 *264:16 *303:55 0
13 *264:16 *444:67 0
14 *1094:A0 *1144:A0 0
15 *1273:A1 *1144:A0 2.28598e-05
16 *1377:CLK *264:16 0.00018037
17 *1377:D *264:16 1.37861e-05
18 *1401:CLK *264:16 0
19 *1401:D *264:16 0.000110919
20 *1407:D *1144:A0 8.25843e-06
21 *95:10 *1144:A0 0.00109174
*RES
1 *1143:X *264:16 38.7456 
2 *264:16 *1144:A0 24.8446 
*END

*D_NET *265 0.010425
*CONN
*I *1149:A3 I *D sky130_fd_sc_hd__mux4_2
*I *1145:X O *D sky130_fd_sc_hd__mux4_2
*CAP
1 *1149:A3 0.00060968
2 *1145:X 0
3 *265:8 0.00237571
4 *265:6 0.00176603
5 *1149:A3 *267:28 0.00139604
6 *1149:A3 *309:101 0.000122101
7 *265:8 *1145:A0 7.17603e-05
8 *265:8 *1264:S 0
9 *265:8 *273:10 0.00141409
10 *265:8 *290:19 8.2731e-05
11 *265:8 *290:32 0.00031497
12 *265:8 *290:42 0
13 *265:8 *290:59 0
14 *265:8 *324:10 3.20153e-05
15 *265:8 *326:12 0.000155469
16 *265:8 *444:304 0
17 *265:8 *444:310 0
18 *265:8 *444:328 0.000836235
19 *1150:S0 *265:8 0.000237809
20 *1181:A1 *265:8 7.40153e-05
21 *1305:A1 *1149:A3 0.000136039
22 *1409:D *265:8 0
23 *1416:D *265:8 0
24 *106:186 *1149:A3 0.000549247
25 *107:104 *1149:A3 0.000170689
26 *108:198 *265:8 8.0399e-05
27 *164:16 *265:8 0
*RES
1 *1145:X *265:6 13.8 
2 *265:6 *265:8 70.4459 
3 *265:8 *1149:A3 43.2061 
*END

*D_NET *266 0.000582162
*CONN
*I *1149:A2 I *D sky130_fd_sc_hd__mux4_2
*I *1146:X O *D sky130_fd_sc_hd__mux4_2
*CAP
1 *1149:A2 9.8361e-05
2 *1146:X 9.8361e-05
3 *1149:A2 *1146:A0 0.000227539
4 *1149:A2 *267:28 7.63919e-05
5 *1149:A2 *443:88 8.15095e-05
6 *1162:S0 *1149:A2 0
*RES
1 *1146:X *1149:A2 32.0555 
*END

*D_NET *267 0.00435182
*CONN
*I *1149:A1 I *D sky130_fd_sc_hd__mux4_2
*I *1147:X O *D sky130_fd_sc_hd__mux4_2
*CAP
1 *1149:A1 0
2 *1147:X 0.000896761
3 *267:28 0.000896761
4 *267:28 *1146:A0 5.56746e-05
5 *267:28 *1146:A3 0.00012542
6 *267:28 *1146:S1 0
7 *267:28 *1147:A0 0.000315158
8 *267:28 *1149:S1 2.89114e-05
9 *267:28 *1250:A0 3.67142e-05
10 *267:28 *1304:S 0
11 *267:28 *380:12 9.71197e-05
12 *267:28 *428:8 6.20656e-05
13 *267:28 *445:150 7.32955e-05
14 *1149:A2 *267:28 7.63919e-05
15 *1149:A3 *267:28 0.00139604
16 *1305:A1 *267:28 0
17 *1346:CLK *267:28 6.88294e-06
18 *106:207 *267:28 0.000284626
*RES
1 *1147:X *267:28 48.9042 
2 *267:28 *1149:A1 9.3 
*END

*D_NET *268 0.00347191
*CONN
*I *1149:A0 I *D sky130_fd_sc_hd__mux4_2
*I *1148:X O *D sky130_fd_sc_hd__mux4_2
*CAP
1 *1149:A0 0
2 *1148:X 0.000756119
3 *268:22 0.000756119
4 *268:22 *1148:A0 9.90431e-05
5 *268:22 *1148:A2 0.000142856
6 *268:22 *307:34 0.000369669
7 *268:22 *428:8 1.58213e-06
8 *268:22 *444:503 0.000230475
9 *268:22 *444:520 5.59903e-05
10 *268:22 *445:150 5.52238e-05
11 *1162:S0 *268:22 3.44572e-05
12 *1211:A0 *268:22 3.97677e-05
13 *1322:A0 *268:22 1.97756e-05
14 *1354:CLK *268:22 4.30382e-05
15 *1427:D *268:22 0
16 *1443:CLK *268:22 5.52302e-05
17 *1443:D *268:22 6.14332e-05
18 *1450:D *268:22 9.25014e-06
19 *90:23 *268:22 9.41642e-05
20 *96:16 *268:22 0.00012776
21 *98:16 *268:22 0
22 *106:123 *268:22 0.000146035
23 *106:165 *268:22 0.000241451
24 *110:16 *268:22 0.000132466
*RES
1 *1148:X *268:22 48.8695 
2 *268:22 *1149:A0 9.3 
*END

*D_NET *269 0.00449974
*CONN
*I *1154:A2 I *D sky130_fd_sc_hd__mux4_2
*I *1150:X O *D sky130_fd_sc_hd__mux4_2
*CAP
1 *1154:A2 0.000238654
2 *1150:X 0.000893781
3 *269:16 0.00113244
4 *1154:A2 *1251:A0 9.41642e-05
5 *1154:A2 *445:116 0.000604179
6 *269:16 *1164:S0 5.56564e-05
7 *269:16 *1191:A0 9.61455e-05
8 *269:16 *1251:S 0.000141707
9 *269:16 *1253:A0 4.13496e-05
10 *269:16 *1253:S 0.000142856
11 *269:16 *1296:A0 0.000170952
12 *269:16 *1316:A0 3.82242e-05
13 *269:16 *305:16 1.20767e-05
14 *269:16 *305:22 0.000137321
15 *269:16 *445:116 0.000133867
16 *1191:A1 *269:16 0.000140933
17 *1251:A1 *269:16 2.87555e-06
18 *1253:A1 *269:16 0.000129554
19 *1339:D *269:16 0.00010096
20 *1349:CLK *269:16 0
21 *1387:D *269:16 8.14455e-05
22 *1427:D *269:16 0
23 *1445:D *269:16 5.71472e-05
24 *87:21 *269:16 0
25 *87:39 *269:16 0
26 *107:80 *269:16 3.17163e-05
27 *107:96 *269:16 2.17375e-05
*RES
1 *1150:X *269:16 48.5477 
2 *269:16 *1154:A2 17.4436 
*END

*D_NET *270 0.0025346
*CONN
*I *1154:A0 I *D sky130_fd_sc_hd__mux4_2
*I *1151:X O *D sky130_fd_sc_hd__mux4_2
*CAP
1 *1154:A0 0
2 *1151:X 0.000813757
3 *270:24 0.000813757
4 *270:24 *1154:S1 1.07719e-05
5 *270:24 *317:10 0.000138441
6 *270:24 *445:116 0
7 *1355:D *270:24 0.000349361
8 *1379:CLK *270:24 1.92789e-05
9 *97:12 *270:24 0.000293366
10 *107:50 *270:24 9.58658e-05
11 *107:52 *270:24 0
*RES
1 *1151:X *270:24 43.9684 
2 *270:24 *1154:A0 9.3 
*END

*D_NET *271 0.0081782
*CONN
*I *1154:A3 I *D sky130_fd_sc_hd__mux4_2
*I *1152:X O *D sky130_fd_sc_hd__mux4_2
*CAP
1 *1154:A3 0
2 *1152:X 0.000765588
3 *271:28 0.00110049
4 *271:16 0.00186608
5 *271:16 *1278:A0 0
6 *271:16 *1595:A1 0.000113306
7 *271:16 *1667:D 8.10497e-05
8 *271:16 *1687:D 0.000311041
9 *271:16 *581:116 0.000125412
10 *271:16 *616:12 0.000746034
11 *271:16 *631:14 2.27416e-05
12 *271:16 *653:8 5.52238e-05
13 *271:28 *1136:S1 0
14 *271:28 *1154:S0 0.000367471
15 *271:28 *1196:A 7.90803e-05
16 *271:28 *1634:S 0.000267814
17 *271:28 *298:20 0
18 *271:28 *312:120 0
19 *271:28 *426:12 0.000198705
20 *271:28 *490:32 0.000151855
21 *271:28 *490:40 2.06178e-05
22 *271:28 *491:28 1.4363e-05
23 *271:28 *491:47 6.8646e-06
24 *271:28 *492:28 0.000226028
25 *271:28 *580:236 4.56437e-05
26 *1139:A2 *271:28 0.000202835
27 *1331:CLK *271:16 0
28 *1395:CLK *271:16 0
29 *1405:D *271:28 7.90187e-05
30 *1453:D *271:28 3.66402e-05
31 *1651:RESET_B *271:28 0.000238982
32 *1687:RESET_B *271:16 1.39711e-05
33 *2:87 *271:28 8.84802e-05
34 *2:89 *271:28 0.00016245
35 *2:120 *271:16 7.55193e-05
36 *2:134 *271:16 0
37 *93:42 *271:16 0
38 *93:62 *271:16 0
39 *104:82 *271:28 2.94614e-05
40 *106:115 *271:28 0
41 *107:62 *271:28 5.66551e-05
42 *109:131 *271:28 0.000347676
43 *257:30 *271:28 0.000281113
*RES
1 *1152:X *271:16 42.8348 
2 *271:16 *271:28 45.0943 
3 *271:28 *1154:A3 9.3 
*END

*D_NET *272 0.000379733
*CONN
*I *1154:A1 I *D sky130_fd_sc_hd__mux4_2
*I *1153:X O *D sky130_fd_sc_hd__mux4_2
*CAP
1 *1154:A1 0.000144346
2 *1153:X 0.000144346
3 *1154:A1 *1154:S0 3.34295e-05
4 *1154:A1 *1154:S1 0
5 *1154:A1 *445:116 0
6 *106:115 *1154:A1 0
7 *107:62 *1154:A1 5.76121e-05
*RES
1 *1153:X *1154:A1 32.1792 
*END

*D_NET *273 0.0121749
*CONN
*I *1159:A3 I *D sky130_fd_sc_hd__mux4_2
*I *1155:X O *D sky130_fd_sc_hd__mux4_2
*CAP
1 *1159:A3 2.88302e-05
2 *1155:X 5.34994e-05
3 *273:26 0.000954535
4 *273:10 0.00280312
5 *273:8 0.00193091
6 *1159:A3 *1159:S1 5.33005e-05
7 *273:8 *1155:A0 2.44318e-05
8 *273:8 *290:42 9.90367e-05
9 *273:10 *1167:A0 0
10 *273:10 *1222:A1 9.11365e-06
11 *273:10 *1223:A1 2.97756e-05
12 *273:10 *1282:A0 0
13 *273:10 *277:10 0
14 *273:10 *277:30 0
15 *273:10 *283:8 0
16 *273:10 *299:43 0
17 *273:10 *380:12 0
18 *273:10 *390:10 0.000181085
19 *273:10 *444:206 8.17708e-05
20 *273:10 *444:328 0.000745655
21 *273:26 *1156:A0 9.90431e-05
22 *273:26 *1157:A2 0.000360547
23 *273:26 *1157:A3 2.89114e-05
24 *273:26 *1222:S 0
25 *273:26 *1252:S 0.000195577
26 *273:26 *1285:S 0
27 *273:26 *1295:A0 0.000484524
28 *273:26 *1295:S 6.59557e-05
29 *273:26 *1315:A0 0.000244801
30 *273:26 *274:18 0.000275762
31 *273:26 *285:26 7.88367e-05
32 *273:26 *296:62 5.71416e-05
33 *273:26 *305:28 5.80314e-05
34 *273:26 *310:24 3.80385e-05
35 *273:26 *438:10 3.34366e-05
36 *273:26 *443:92 0.000279953
37 *273:26 *444:192 6.71755e-05
38 *1150:S0 *273:10 0
39 *1190:A1 *273:10 0
40 *1235:A1 *273:10 0
41 *1263:A1 *273:10 0
42 *1305:A1 *273:10 8.48705e-05
43 *1332:D *273:8 0
44 *1332:D *273:10 0.000157906
45 *1336:CLK *273:10 0
46 *1348:D *273:26 1.48494e-05
47 *1362:D *273:10 0.000157906
48 *1363:CLK *273:10 0
49 *1364:D *273:10 9.04243e-05
50 *1426:CLK *273:26 0.000316384
51 *1428:CLK *273:26 0.000172309
52 *1428:D *273:26 0.000230799
53 *1435:D *273:10 0.000123814
54 *86:23 *273:10 0
55 *86:150 *273:10 0
56 *86:159 *273:10 0
57 *106:213 *273:10 0
58 *108:48 *273:26 4.87854e-05
59 *108:54 *273:26 0
60 *108:58 *273:26 0
61 *108:68 *273:26 0
62 *108:70 *273:26 0
63 *265:8 *273:10 0.00141409
*RES
1 *1155:X *273:8 15.6812 
2 *273:8 *273:10 70.4459 
3 *273:10 *273:26 49.6685 
4 *273:26 *1159:A3 14.5426 
*END

*D_NET *274 0.00418484
*CONN
*I *1159:A2 I *D sky130_fd_sc_hd__mux4_2
*I *1156:X O *D sky130_fd_sc_hd__mux4_2
*CAP
1 *1159:A2 0.000470955
2 *1156:X 0.000421871
3 *274:18 0.000892826
4 *1159:A2 *1252:A0 0.000178847
5 *1159:A2 *1297:A0 0.0001399
6 *1159:A2 *312:32 3.21389e-05
7 *1159:A2 *443:88 0.000437756
8 *274:18 *1295:S 3.42144e-05
9 *1295:A1 *274:18 0.000217262
10 *1426:CLK *274:18 0.000125873
11 *1426:D *274:18 9.90367e-05
12 *1442:D *1159:A2 2.38281e-05
13 *87:49 *1159:A2 0
14 *106:180 *1159:A2 0
15 *108:54 *1159:A2 2.95726e-05
16 *108:58 *1159:A2 9.03136e-05
17 *108:68 *1159:A2 0.000714686
18 *108:68 *274:18 0
19 *273:26 *274:18 0.000275762
*RES
1 *1156:X *274:18 33.2011 
2 *274:18 *1159:A2 28.2605 
*END

*D_NET *275 0.000270653
*CONN
*I *1159:A1 I *D sky130_fd_sc_hd__mux4_2
*I *1157:X O *D sky130_fd_sc_hd__mux4_2
*CAP
1 *1159:A1 0.000104267
2 *1157:X 0.000104267
3 *1159:A1 *1159:A0 6.21186e-05
4 *1159:A1 *445:150 0
5 *1159:A1 *445:154 0
6 *106:165 *1159:A1 0
7 *108:48 *1159:A1 0
*RES
1 *1157:X *1159:A1 31.0406 
*END

*D_NET *276 0.004206
*CONN
*I *1159:A0 I *D sky130_fd_sc_hd__mux4_2
*I *1158:X O *D sky130_fd_sc_hd__mux4_2
*CAP
1 *1159:A0 0.00073826
2 *1158:X 0.000249165
3 *276:16 0.000987425
4 *1159:A0 *1203:S 2.59355e-05
5 *1159:A0 *1322:S 0.000170561
6 *1159:A0 *313:39 0.00033295
7 *1159:A0 *445:150 0
8 *276:16 *1158:A1 6.12902e-05
9 *276:16 *398:12 9.25014e-06
10 *276:16 *406:10 9.58593e-05
11 *1091:A0 *1159:A0 0
12 *1159:A1 *1159:A0 6.21186e-05
13 *1380:CLK *1159:A0 3.1936e-05
14 *1380:CLK *276:16 0.000265924
15 *1380:D *276:16 5.52302e-05
16 *1404:D *276:16 0.000104534
17 *98:16 *1159:A0 0.000605189
18 *108:32 *1159:A0 2.60984e-05
19 *108:40 *1159:A0 0.000217529
20 *108:48 *1159:A0 5.76121e-05
21 *110:16 *1159:A0 0
22 *114:26 *276:16 0.000109132
*RES
1 *1158:X *276:16 29.0674 
2 *276:16 *1159:A0 48.919 
*END

*D_NET *277 0.0110703
*CONN
*I *1164:A3 I *D sky130_fd_sc_hd__mux4_2
*I *1160:X O *D sky130_fd_sc_hd__mux4_2
*CAP
1 *1164:A3 0.000457273
2 *1160:X 0
3 *277:30 0.00132855
4 *277:10 0.00203113
5 *277:6 0.00115985
6 *1164:A3 *1187:A 0
7 *1164:A3 *1187:B 0
8 *1164:A3 *1247:B 0
9 *1164:A3 *278:20 0.000339648
10 *1164:A3 *305:6 0
11 *1164:A3 *312:120 0
12 *1164:A3 *443:80 0.000200422
13 *277:10 *1155:S0 0.000171895
14 *277:10 *1160:S0 0.000172068
15 *277:10 *1261:A0 5.43491e-05
16 *277:10 *1276:S 0.000176234
17 *277:10 *290:42 0
18 *277:10 *334:14 9.86019e-05
19 *277:10 *361:10 0
20 *277:10 *442:172 0.000200139
21 *277:10 *444:328 0
22 *277:30 *1137:A3 0
23 *277:30 *1137:S1 0
24 *277:30 *1161:S0 0.000358764
25 *277:30 *1167:A0 0.000203557
26 *277:30 *1167:A1 0
27 *277:30 *1167:S1 0
28 *277:30 *1183:A0 0.000148656
29 *277:30 *283:8 0.000172745
30 *277:30 *293:8 8.13338e-05
31 *277:30 *293:14 0.000318055
32 *277:30 *299:14 0
33 *277:30 *309:10 8.39096e-05
34 *277:30 *368:10 0
35 *277:30 *386:10 0
36 *277:30 *410:10 2.89016e-05
37 *1235:A1 *277:10 0.000302417
38 *1332:D *277:10 0
39 *1334:D *277:30 1.78447e-05
40 *1336:D *277:30 0
41 *1360:CLK *277:30 1.41137e-05
42 *1396:D *277:10 0
43 *1398:D *277:30 9.89637e-05
44 *1408:D *277:10 0
45 *1415:D *277:10 0
46 *1416:CLK *277:30 0.000184745
47 *1416:D *277:30 0.000192872
48 *1432:CLK *1164:A3 0.00031446
49 *1432:D *1164:A3 9.02232e-05
50 *79:37 *277:10 4.10338e-05
51 *79:137 *277:10 0.000175519
52 *92:24 *277:10 5.98882e-05
53 *106:57 *277:10 0.000332434
54 *106:70 *277:10 0.000248493
55 *108:223 *277:10 0.000122708
56 *109:44 *277:10 0.000154424
57 *109:190 *1164:A3 0.000934033
58 *273:10 *277:10 0
59 *273:10 *277:30 0
*RES
1 *1160:X *277:6 13.8 
2 *277:6 *277:10 45.9408 
3 *277:10 *277:30 47.1883 
4 *277:30 *1164:A3 30.1912 
*END

*D_NET *278 0.0039815
*CONN
*I *1164:A2 I *D sky130_fd_sc_hd__mux4_2
*I *1161:X O *D sky130_fd_sc_hd__mux4_2
*CAP
1 *1164:A2 0
2 *1161:X 0.000996898
3 *278:20 0.000996898
4 *278:20 *1221:A1 2.78608e-05
5 *278:20 *1223:S 4.00045e-05
6 *278:20 *1298:A0 0.000127279
7 *278:20 *299:32 4.43256e-05
8 *278:20 *383:6 0.000185593
9 *278:20 *443:80 9.60939e-05
10 *1164:A3 *278:20 0.000339648
11 *1221:A0 *278:20 0.000227532
12 *1298:A1 *278:20 8.25843e-06
13 *1339:CLK *278:20 0
14 *1339:D *278:20 0
15 *1365:D *278:20 0.000150406
16 *1432:D *278:20 0.000116778
17 *86:31 *278:20 0
18 *109:171 *278:20 9.18594e-05
19 *164:16 *278:20 0.000532064
*RES
1 *1161:X *278:20 45.5131 
2 *278:20 *1164:A2 9.3 
*END

*D_NET *279 0.000855931
*CONN
*I *1164:A1 I *D sky130_fd_sc_hd__mux4_2
*I *1162:X O *D sky130_fd_sc_hd__mux4_2
*CAP
1 *1164:A1 0.000279652
2 *1162:X 0.000279652
3 *1164:A1 *1164:A0 9.39961e-05
4 *1164:A1 *1296:S 4.58096e-05
5 *1164:A1 *296:10 4.25539e-05
6 *1164:A1 *296:20 6.8646e-06
7 *1164:A1 *307:20 0
8 *1164:A1 *312:120 0
9 *99:14 *1164:A1 0.000107404
10 *109:139 *1164:A1 0
*RES
1 *1162:X *1164:A1 35.8426 
*END

*D_NET *280 0.00497186
*CONN
*I *1164:A0 I *D sky130_fd_sc_hd__mux4_2
*I *1163:X O *D sky130_fd_sc_hd__mux4_2
*CAP
1 *1164:A0 0.000424879
2 *1163:X 0.000345593
3 *280:16 0.000770472
4 *1164:A0 *1325:A1 0.000141567
5 *1164:A0 *296:10 4.81157e-05
6 *280:16 *1163:A0 0.00010096
7 *280:16 *1163:A2 0.000270326
8 *280:16 *1163:S0 2.81497e-05
9 *280:16 *1163:S1 5.52302e-05
10 *280:16 *1199:S 0.000105696
11 *280:16 *1325:A1 0.00018077
12 *280:16 *298:20 0
13 *1092:A0 *280:16 0.000210602
14 *1164:A1 *1164:A0 9.39961e-05
15 *1453:D *1164:A0 0
16 *81:28 *280:16 0.000238893
17 *81:40 *280:16 0.000224583
18 *99:14 *1164:A0 0.00133721
19 *104:94 *1164:A0 9.6561e-06
20 *106:115 *280:16 0.000103974
21 *109:131 *1164:A0 0.00023686
22 *109:139 *1164:A0 4.43256e-05
*RES
1 *1163:X *280:16 34.7605 
2 *280:16 *1164:A0 38.6961 
*END

*D_NET *281 0.00257846
*CONN
*I *1169:A2 I *D sky130_fd_sc_hd__mux4_2
*I *1165:X O *D sky130_fd_sc_hd__mux4_2
*CAP
1 *1169:A2 0.000494927
2 *1165:X 0.000494927
3 *1169:A2 *1169:A3 0.000312215
4 *1169:A2 *1174:A2 4.36728e-05
5 *1169:A2 *1189:S 0.000531286
6 *1169:A2 *283:22 1.32552e-05
7 *1169:A2 *286:22 0
8 *1361:D *1169:A2 2.54492e-05
9 *239:14 *1169:A2 0.000662725
*RES
1 *1165:X *1169:A2 38.6001 
*END

*D_NET *282 0.00225161
*CONN
*I *1169:A0 I *D sky130_fd_sc_hd__mux4_2
*I *1166:X O *D sky130_fd_sc_hd__mux4_2
*CAP
1 *1169:A0 0.000432063
2 *1166:X 0.000432063
3 *1169:A0 *1166:A0 3.13645e-05
4 *1169:A0 *1169:S0 1.39726e-05
5 *1169:A0 *1169:S1 2.89016e-05
6 *1169:A0 *1174:A0 0.000145985
7 *1169:A0 *1174:A1 3.88059e-05
8 *1169:A0 *288:18 4.35174e-05
9 *1169:A0 *376:12 8.03142e-05
10 *1166:S0 *1169:A0 0
11 *1382:CLK *1169:A0 0.000122159
12 *1382:D *1169:A0 0.000446921
13 *88:8 *1169:A0 5.52302e-05
14 *100:20 *1169:A0 3.61629e-06
15 *101:16 *1169:A0 0.000376698
*RES
1 *1166:X *1169:A0 46.8575 
*END

*D_NET *283 0.0106514
*CONN
*I *1169:A3 I *D sky130_fd_sc_hd__mux4_2
*I *1167:X O *D sky130_fd_sc_hd__mux4_2
*CAP
1 *1169:A3 0.000180069
2 *1167:X 0
3 *283:22 0.00103918
4 *283:8 0.00213523
5 *283:6 0.00127612
6 *1169:A3 *1169:A1 5.52302e-05
7 *1169:A3 *1174:A2 0
8 *283:8 *1147:A3 0
9 *283:8 *1161:S0 0.000126911
10 *283:8 *1306:A0 0
11 *283:8 *286:22 8.32171e-05
12 *283:8 *311:34 0
13 *283:8 *311:43 0.000131297
14 *283:8 *311:47 0.00139571
15 *283:8 *391:10 0
16 *283:8 *444:172 0
17 *283:8 *444:206 0.000223593
18 *283:22 *1165:A0 9.71197e-05
19 *283:22 *1165:A1 2.59355e-05
20 *283:22 *1165:A2 0.000142856
21 *283:22 *1165:A3 0.000136951
22 *283:22 *1171:S1 7.9692e-05
23 *283:22 *1189:S 8.18783e-05
24 *283:22 *1224:S 0.00010096
25 *283:22 *1225:S 0
26 *283:22 *286:22 0.000385005
27 *1125:A *283:8 0
28 *1169:A2 *1169:A3 0.000312215
29 *1169:A2 *283:22 1.32552e-05
30 *1171:S0 *283:8 1.17968e-05
31 *1190:A1 *283:8 0.000214342
32 *1289:A1 *283:8 0
33 *1290:A1 *283:22 5.52238e-05
34 *1305:A1 *283:8 9.11365e-06
35 *1336:CLK *283:8 0.000171835
36 *1337:D *283:22 9.25014e-06
37 *1342:D *283:8 0
38 *1362:D *283:8 0
39 *1363:CLK *283:8 0.000401278
40 *1364:D *283:8 4.7024e-05
41 *1365:D *283:8 0.000103974
42 *1366:CLK *283:22 6.62783e-05
43 *1366:D *283:22 0
44 *85:37 *283:22 0
45 *86:23 *283:8 0.000168428
46 *86:150 *283:8 0.000196728
47 *86:159 *283:8 0.000386184
48 *106:213 *283:8 0.000128868
49 *110:36 *1169:A3 0
50 *110:36 *283:22 8.02709e-05
51 *110:40 *283:22 8.95387e-05
52 *110:42 *283:22 2.15245e-05
53 *114:124 *283:8 0.000123668
54 *239:14 *283:22 0.00017091
55 *273:10 *283:8 0
56 *277:30 *283:8 0.000172745
*RES
1 *1167:X *283:6 13.8 
2 *283:6 *283:8 58.6637 
3 *283:8 *283:22 45.1338 
4 *283:22 *1169:A3 15.1664 
*END

*D_NET *284 0.0019087
*CONN
*I *1169:A1 I *D sky130_fd_sc_hd__mux4_2
*I *1168:X O *D sky130_fd_sc_hd__mux4_2
*CAP
1 *1169:A1 0.000586382
2 *1168:X 0.000586382
3 *1169:A1 *1168:A0 3.10821e-05
4 *1169:A1 *1169:S1 0.0001827
5 *1169:A1 *1174:A2 5.39629e-06
6 *1169:A1 *1174:A3 0
7 *1169:A1 *1174:S1 0
8 *1169:A1 *1249:S 5.71472e-05
9 *1169:A1 *312:42 8.90582e-05
10 *1169:A1 *444:137 1.40306e-05
11 *1168:S0 *1169:A1 0
12 *1169:A3 *1169:A1 5.52302e-05
13 *1351:D *1169:A1 1.78447e-05
14 *1447:D *1169:A1 0.000273564
15 *110:36 *1169:A1 0
16 *111:47 *1169:A1 0
17 *114:74 *1169:A1 9.87983e-06
18 *114:83 *1169:A1 0
*RES
1 *1168:X *1169:A1 46.8328 
*END

*D_NET *285 0.0104269
*CONN
*I *1174:A3 I *D sky130_fd_sc_hd__mux4_2
*I *1170:X O *D sky130_fd_sc_hd__mux4_2
*CAP
1 *1174:A3 0.000356464
2 *1170:X 2.74426e-05
3 *285:26 0.00138801
4 *285:12 0.00168915
5 *285:8 0.000685045
6 *1174:A3 *1174:A2 5.71472e-05
7 *1174:A3 *312:42 0.000234783
8 *285:8 *1170:S0 5.33334e-05
9 *285:8 *308:12 2.72859e-05
10 *285:12 *1188:S 0.000445221
11 *285:12 *1284:A0 0.000422035
12 *285:12 *1284:S 3.13225e-05
13 *285:12 *309:10 0.000412594
14 *285:12 *389:16 8.57079e-05
15 *285:12 *410:10 8.32242e-05
16 *285:12 *421:12 0.000142847
17 *285:12 *444:304 0.000257535
18 *285:12 *444:310 0.000111872
19 *285:26 *1252:S 0.000163548
20 *285:26 *1285:S 0.000513342
21 *285:26 *1287:A0 0
22 *285:26 *1295:A0 6.15352e-05
23 *285:26 *299:32 0
24 *285:26 *305:28 0.00053128
25 *285:26 *309:101 7.08001e-05
26 *285:26 *389:16 0.000208036
27 *285:26 *421:12 8.68851e-05
28 *285:26 *444:304 1.18064e-05
29 *1144:A2 *1174:A3 0
30 *1169:A1 *1174:A3 0
31 *1264:A1 *285:12 7.26935e-05
32 *1285:A1 *285:26 0.000294951
33 *1386:D *285:26 0
34 *1388:CLK *285:26 4.27437e-05
35 *1388:D *285:26 0.000189929
36 *1426:CLK *285:26 0
37 *68:100 *285:26 0
38 *104:146 *285:12 0.000131297
39 *104:157 *285:12 0.000528259
40 *105:66 *1174:A3 0.000131297
41 *105:76 *285:26 0.000529356
42 *114:83 *1174:A3 0
43 *114:161 *1174:A3 0
44 *114:173 *1174:A3 0.000150632
45 *164:16 *285:26 0
46 *261:24 *285:26 0.000118648
47 *273:26 *285:26 7.88367e-05
*RES
1 *1170:X *285:8 15.1119 
2 *285:8 *285:12 35.7799 
3 *285:12 *285:26 49.3641 
4 *285:26 *1174:A3 31.4436 
*END

*D_NET *286 0.00410379
*CONN
*I *1174:A2 I *D sky130_fd_sc_hd__mux4_2
*I *1171:X O *D sky130_fd_sc_hd__mux4_2
*CAP
1 *1174:A2 0.000265711
2 *1171:X 0.000568244
3 *286:22 0.000833955
4 *286:22 *1189:S 0
5 *1144:A2 *1174:A2 0
6 *1169:A1 *1174:A2 5.39629e-06
7 *1169:A2 *1174:A2 4.36728e-05
8 *1169:A2 *286:22 0
9 *1169:A3 *1174:A2 0
10 *1171:S0 *286:22 8.32242e-05
11 *1174:A3 *1174:A2 5.71472e-05
12 *1189:A1 *286:22 1.07719e-05
13 *1290:A1 *286:22 1.32552e-05
14 *1337:CLK *286:22 6.97685e-05
15 *1337:D *286:22 0.000363994
16 *1361:D *286:22 0.000322387
17 *85:33 *286:22 0.000199137
18 *114:99 *1174:A2 8.33968e-05
19 *114:99 *286:22 0.000229971
20 *114:112 *286:22 0.000485537
21 *283:8 *286:22 8.32171e-05
22 *283:22 *286:22 0.000385005
*RES
1 *1171:X *286:22 45.9487 
2 *286:22 *1174:A2 16.8743 
*END

*D_NET *287 0.00162866
*CONN
*I *1174:A1 I *D sky130_fd_sc_hd__mux4_2
*I *1172:X O *D sky130_fd_sc_hd__mux4_2
*CAP
1 *1174:A1 0.000412786
2 *1172:X 0.000412786
3 *1174:A1 *1169:S0 1.17968e-05
4 *1174:A1 *1169:S1 0
5 *1174:A1 *1174:A0 0.000155484
6 *1174:A1 *1174:S1 9.90367e-05
7 *1174:A1 *1294:S 1.40415e-05
8 *1174:A1 *1318:A0 0
9 *1174:A1 *296:32 0
10 *1174:A1 *433:10 4.81157e-05
11 *1174:A1 *445:160 0
12 *1127:A *1174:A1 9.49567e-05
13 *1169:A0 *1174:A1 3.88059e-05
14 *105:58 *1174:A1 0.000318107
15 *114:60 *1174:A1 2.27416e-05
*RES
1 *1172:X *1174:A1 43.3179 
*END

*D_NET *288 0.00533277
*CONN
*I *1174:A0 I *D sky130_fd_sc_hd__mux4_2
*I *1173:X O *D sky130_fd_sc_hd__mux4_2
*CAP
1 *1174:A0 0.000207152
2 *1173:X 0.000583824
3 *288:18 0.000790976
4 *1174:A0 *1169:S0 0.000155484
5 *288:18 *1216:A1 7.20491e-05
6 *288:18 *1327:A1 0.00022266
7 *288:18 *444:67 6.58195e-05
8 *1169:A0 *1174:A0 0.000145985
9 *1169:A0 *288:18 4.35174e-05
10 *1173:S0 *288:18 1.78353e-05
11 *1174:A1 *1174:A0 0.000155484
12 *1216:A0 *288:18 0.000432243
13 *1244:A0 *288:18 9.33978e-07
14 *1359:D *288:18 8.32171e-05
15 *1382:CLK *1174:A0 0.000232399
16 *1382:CLK *288:18 0
17 *1382:D *288:18 0.000531604
18 *1383:D *288:18 1.64343e-05
19 *1407:CLK *288:18 4.64967e-05
20 *88:8 *1174:A0 2.14757e-05
21 *100:20 *1174:A0 0.000377217
22 *100:20 *288:18 0.000565637
23 *101:16 *288:18 0
24 *111:35 *288:18 0.000564328
*RES
1 *1173:X *288:18 46.8645 
2 *288:18 *1174:A0 30.2803 
*END

*D_NET *289 0.00406473
*CONN
*I *1227:A I *D sky130_fd_sc_hd__nor2_1
*I *1176:B I *D sky130_fd_sc_hd__nor3b_1
*I *1217:A_N I *D sky130_fd_sc_hd__nand2b_1
*I *1283:A I *D sky130_fd_sc_hd__nor3b_1
*I *1175:Y O *D sky130_fd_sc_hd__nand3b_1
*CAP
1 *1227:A 0.000353026
2 *1176:B 5.94483e-05
3 *1217:A_N 0.000114284
4 *1283:A 0.000109196
5 *1175:Y 0
6 *289:34 0.000497258
7 *289:23 0.0002183
8 *289:4 0.000128428
9 *1176:B *1175:B 8.25843e-06
10 *1176:B *1226:A 2.28499e-05
11 *1176:B *1226:B 7.37945e-05
12 *1176:B *492:44 6.09963e-05
13 *1217:A_N *1187:A 2.25741e-05
14 *1217:A_N *1301:A 5.58941e-05
15 *1217:A_N *291:14 4.98055e-06
16 *1217:A_N *442:84 7.38699e-05
17 *1217:A_N *492:54 0.00015134
18 *1217:A_N *493:84 7.22594e-05
19 *1227:A *1226:B 1.04232e-05
20 *1227:A *1227:B 0.000311423
21 *1227:A *301:14 1.21258e-05
22 *1227:A *306:23 6.13706e-05
23 *1283:A *1175:A_N 2.83403e-05
24 *1283:A *1256:A 9.41642e-05
25 *1283:A *1283:B 8.02348e-05
26 *1283:A *1283:C_N 0.00010096
27 *289:23 *1256:A 5.33005e-05
28 *289:23 *1283:B 1.21258e-05
29 *289:34 *492:48 8.6229e-06
30 *289:34 *492:50 0.000143026
31 *289:34 *492:54 4.49293e-05
32 *289:34 *493:82 0.00013543
33 *289:34 *493:84 5.41794e-05
34 *1175:C *1283:A 0.000160913
35 *1424:CLK *1217:A_N 0.000102071
36 *1424:CLK *1283:A 0.000126439
37 *107:148 *1227:A 6.48447e-05
38 *110:230 *1227:A 0.000138718
39 *257:30 *1227:A 0.000294332
*RES
1 *1175:Y *289:4 9.3 
2 *289:4 *1283:A 23.7703 
3 *289:4 *289:23 5.24258 
4 *289:23 *1217:A_N 19.8644 
5 *289:23 *289:34 3.53962 
6 *289:34 *1176:B 16.3 
7 *289:34 *1227:A 25.2366 
*END

*D_NET *290 0.0143394
*CONN
*I *1180:S I *D sky130_fd_sc_hd__mux2_1
*I *1181:S I *D sky130_fd_sc_hd__mux2_1
*I *1177:S I *D sky130_fd_sc_hd__mux2_1
*I *1182:S I *D sky130_fd_sc_hd__mux2_1
*I *1178:S I *D sky130_fd_sc_hd__mux2_1
*I *1179:S I *D sky130_fd_sc_hd__mux2_1
*I *1184:S I *D sky130_fd_sc_hd__mux2_1
*I *1183:S I *D sky130_fd_sc_hd__mux2_1
*I *1176:Y O *D sky130_fd_sc_hd__nor3b_1
*CAP
1 *1180:S 0.000195914
2 *1181:S 0
3 *1177:S 0.000269744
4 *1182:S 0.000317401
5 *1178:S 0.000360351
6 *1179:S 2.23854e-05
7 *1184:S 6.95852e-05
8 *1183:S 0.000126403
9 *1176:Y 0
10 *290:74 0.000942058
11 *290:59 0.0010696
12 *290:42 0.000846611
13 *290:32 0.000846074
14 *290:19 0.000593103
15 *290:8 0.000631042
16 *290:4 0.000553217
17 *1177:S *1135:S0 0
18 *1177:S *1177:A0 8.41603e-05
19 *1178:S *1145:S0 0
20 *1178:S *1257:S 0.000202898
21 *1180:S *1180:A0 5.52302e-05
22 *1180:S *1226:B 1.14192e-05
23 *1180:S *1227:B 9.60337e-06
24 *1180:S *1274:B 0
25 *1180:S *308:12 5.52302e-05
26 *1180:S *492:48 1.53289e-05
27 *1180:S *492:50 1.89507e-06
28 *1180:S *493:82 0
29 *1182:S *1135:S1 0
30 *1182:S *1228:A0 0
31 *1182:S *1228:S 7.53317e-05
32 *1183:S *1263:S 0
33 *1184:S *301:20 0.000167988
34 *1184:S *308:12 0.000310286
35 *290:8 *1226:B 0.00014285
36 *290:8 *1256:B 6.4549e-05
37 *290:8 *1263:S 0.000297713
38 *290:8 *306:6 1.58163e-05
39 *290:19 *1184:A0 0
40 *290:19 *444:310 0
41 *290:32 *1184:A0 0
42 *290:32 *1264:A0 0
43 *290:32 *1264:S 0
44 *290:32 *326:12 7.17189e-05
45 *290:42 *1145:A0 9.30093e-05
46 *290:42 *1155:A0 0.00022266
47 *290:42 *1229:S 0.000139907
48 *290:42 *1276:S 4.19671e-05
49 *290:42 *306:37 0
50 *290:42 *324:10 8.49318e-05
51 *290:42 *326:12 9.20581e-06
52 *290:42 *444:328 2.66026e-05
53 *290:59 *1145:A0 0
54 *290:59 *1229:S 0.000207153
55 *290:74 *1135:A2 0.000320024
56 *1118:A *1178:S 9.92409e-05
57 *1119:A *1178:S 0.000308479
58 *1180:A1 *1180:S 3.69697e-05
59 *1182:A1 *1182:S 0.000253337
60 *1228:A1 *1182:S 0
61 *1228:A1 *290:74 0
62 *1229:A1 *290:59 0
63 *1264:A1 *290:32 0
64 *1275:A1 *290:74 0
65 *1328:CLK *1182:S 1.50867e-05
66 *1328:D *1177:S 0.000107231
67 *1328:D *1182:S 1.53273e-05
68 *1335:D *290:32 0.000304839
69 *1368:D *1182:S 5.20904e-05
70 *1369:D *290:59 3.69047e-06
71 *1392:CLK *1177:S 8.17274e-05
72 *1392:CLK *1182:S 0.000318101
73 *1392:D *1177:S 0.00023662
74 *1399:D *290:32 7.0758e-05
75 *1408:D *290:74 0
76 *1689:CLK *1177:S 2.37575e-05
77 *79:29 *290:59 7.71767e-05
78 *79:37 *290:42 0.000131558
79 *79:37 *290:59 9.31893e-05
80 *79:150 *290:74 5.08481e-05
81 *79:176 *1177:S 0
82 *104:157 *290:59 0
83 *104:157 *290:74 0
84 *104:163 *1182:S 3.81416e-06
85 *104:189 *1177:S 0.000114061
86 *105:200 *1178:S 5.52302e-05
87 *106:57 *290:42 1.18064e-05
88 *108:211 *290:42 0
89 *108:223 *290:42 0.000135699
90 *109:34 *1178:S 2.83248e-05
91 *109:44 *1182:S 8.32171e-05
92 *110:216 *1180:S 2.6949e-05
93 *110:230 *1180:S 0
94 *110:230 *1183:S 0.000356028
95 *110:230 *290:8 0.00117659
96 *261:14 *1180:S 0
97 *265:8 *290:19 8.2731e-05
98 *265:8 *290:32 0.00031497
99 *265:8 *290:42 0
100 *265:8 *290:59 0
101 *273:8 *290:42 9.90367e-05
102 *277:10 *290:42 0
*RES
1 *1176:Y *290:4 9.3 
2 *290:4 *290:8 18.8367 
3 *290:8 *1183:S 14.0277 
4 *290:8 *290:19 8.46042 
5 *290:19 *1184:S 17.9584 
6 *290:19 *290:32 21.0842 
7 *290:32 *290:42 26.1536 
8 *290:42 *1179:S 9.89406 
9 *290:42 *290:59 16.4803 
10 *290:59 *1178:S 28.2308 
11 *290:59 *290:74 15.1931 
12 *290:74 *1182:S 31.5179 
13 *290:74 *1177:S 20.8842 
14 *290:32 *1181:S 9.3 
15 *290:4 *1180:S 23.8446 
*END

*D_NET *291 0.00346856
*CONN
*I *1274:A I *D sky130_fd_sc_hd__nor2_1
*I *1256:A I *D sky130_fd_sc_hd__nor2_1
*I *1301:B I *D sky130_fd_sc_hd__nor4b_1
*I *1187:A I *D sky130_fd_sc_hd__nor2_1
*I *1185:Y O *D sky130_fd_sc_hd__nand2_1
*CAP
1 *1274:A 2.08399e-05
2 *1256:A 0.000205032
3 *1301:B 4.1975e-05
4 *1187:A 0.000176023
5 *1185:Y 2.43245e-05
6 *291:14 0.000284168
7 *291:12 0.000412104
8 *291:6 0.000186067
9 *1187:A *1187:B 5.52238e-05
10 *1187:A *1247:B 0.000363076
11 *1187:A *442:84 0.000138263
12 *1256:A *1175:A_N 5.52302e-05
13 *1256:A *1197:A_N 9.41642e-05
14 *1256:A *1256:B 6.12093e-05
15 *1256:A *1283:B 4.01762e-05
16 *1274:A *1186:B 0
17 *1274:A *492:44 5.7661e-06
18 *1274:A *493:74 0
19 *1301:B *1175:A_N 0.000137983
20 *291:6 *492:44 8.46829e-05
21 *291:6 *493:74 5.03772e-05
22 *291:12 *304:29 0.000239878
23 *291:12 *492:44 5.33005e-05
24 *291:12 *493:74 2.59355e-05
25 *291:12 *493:82 9.74808e-05
26 *291:12 *493:84 2.26327e-05
27 *291:14 *1247:B 3.23658e-05
28 *291:14 *1301:A 2.84398e-05
29 *291:14 *304:29 0.000122047
30 *291:14 *493:84 4.58192e-05
31 *1164:A3 *1187:A 0
32 *1175:C *1256:A 4.46231e-06
33 *1175:C *1301:B 5.03772e-05
34 *1197:B *1256:A 4.81734e-05
35 *1217:A_N *1187:A 2.25741e-05
36 *1217:A_N *291:14 4.98055e-06
37 *1283:A *1256:A 9.41642e-05
38 *1424:CLK *1187:A 0
39 *1424:CLK *1256:A 5.81579e-05
40 *87:88 *1187:A 0
41 *104:133 *1256:A 2.51343e-06
42 *128:67 *1256:A 5.39166e-06
43 *128:67 *1301:B 1.98839e-05
44 *289:23 *1256:A 5.33005e-05
*RES
1 *1185:Y *291:6 10.6119 
2 *291:6 *291:12 9.62379 
3 *291:12 *291:14 2.69803 
4 *291:14 *1187:A 21.0278 
5 *291:14 *1301:B 15.6812 
6 *291:12 *1256:A 20.8545 
7 *291:6 *1274:A 9.89406 
*END

*D_NET *292 0.00281087
*CONN
*I *1319:A_N I *D sky130_fd_sc_hd__nand2b_1
*I *1265:A I *D sky130_fd_sc_hd__nor2_1
*I *1187:B I *D sky130_fd_sc_hd__nor2_1
*I *1186:Y O *D sky130_fd_sc_hd__nand3b_1
*CAP
1 *1319:A_N 6.61554e-06
2 *1265:A 0
3 *1187:B 0.000255129
4 *1186:Y 0.000420198
5 *292:33 0.000114977
6 *292:10 0.000783688
7 *1187:B *1247:A 5.52302e-05
8 *1187:B *1247:B 0.000183726
9 *1187:B *1310:B 0
10 *1187:B *293:6 4.0342e-06
11 *1187:B *302:8 7.33786e-06
12 *1187:B *305:6 7.65719e-05
13 *1187:B *312:10 9.49092e-05
14 *1319:A_N *307:20 2.44318e-05
15 *292:10 *1236:A_N 6.21521e-06
16 *292:10 *1236:B 9.68964e-05
17 *292:10 *297:8 0
18 *292:10 *491:57 1.92789e-05
19 *292:10 *492:36 2.89016e-05
20 *292:33 *1217:B 8.43535e-06
21 *292:33 *1265:B 4.7979e-05
22 *292:33 *302:8 5.52302e-05
23 *292:33 *305:6 0
24 *292:33 *307:20 5.52302e-05
25 *292:33 *443:68 4.00276e-06
26 *1164:A3 *1187:B 0
27 *1187:A *1187:B 5.52238e-05
28 *1384:CLK *292:10 1.14734e-05
29 *1440:CLK *1319:A_N 5.71472e-05
30 *1440:CLK *292:33 2.14757e-05
31 *104:104 *1187:B 5.7616e-05
32 *104:104 *292:10 0.000104236
33 *104:118 *1187:B 9.51073e-05
34 *109:190 *1187:B 0
35 *128:61 *292:10 5.95717e-05
36 *128:67 *292:10 0
*RES
1 *1186:Y *292:10 24.8149 
2 *292:10 *1187:B 24.3941 
3 *292:10 *292:33 8.3119 
4 *292:33 *1265:A 9.3 
5 *292:33 *1319:A_N 10.0426 
*END

*D_NET *293 0.0174128
*CONN
*I *1191:S I *D sky130_fd_sc_hd__mux2_1
*I *1188:S I *D sky130_fd_sc_hd__mux2_1
*I *1193:S I *D sky130_fd_sc_hd__mux2_1
*I *1190:S I *D sky130_fd_sc_hd__mux2_1
*I *1192:S I *D sky130_fd_sc_hd__mux2_1
*I *1189:S I *D sky130_fd_sc_hd__mux2_1
*I *1194:S I *D sky130_fd_sc_hd__mux2_1
*I *1195:S I *D sky130_fd_sc_hd__mux2_1
*I *1187:Y O *D sky130_fd_sc_hd__nor2_1
*CAP
1 *1191:S 0.000295779
2 *1188:S 9.49965e-05
3 *1193:S 0
4 *1190:S 0.000166613
5 *1192:S 0
6 *1189:S 0.000547162
7 *1194:S 0
8 *1195:S 0.000614544
9 *1187:Y 0.000113367
10 *293:59 0.00113028
11 *293:42 0.00131058
12 *293:38 0.000648197
13 *293:32 0.00136925
14 *293:14 0.00120639
15 *293:8 0.000909985
16 *293:6 0.000685094
17 *1188:S *1284:S 2.48938e-05
18 *1188:S *309:10 0.000424464
19 *1189:S *1165:A0 7.51399e-05
20 *1189:S *1219:S 6.87574e-05
21 *1189:S *1224:S 4.45768e-06
22 *1189:S *1285:A0 0.000155476
23 *1189:S *1308:A0 4.65158e-06
24 *1189:S *392:10 1.0334e-05
25 *1189:S *444:168 6.03192e-05
26 *1190:S *1190:A0 9.90431e-05
27 *1190:S *1289:A0 3.06878e-06
28 *1190:S *311:34 9.22103e-06
29 *1190:S *420:8 0.000136951
30 *1191:S *311:14 0.000338485
31 *1195:S *1288:S 9.60939e-05
32 *1195:S *1290:A0 4.23086e-05
33 *1195:S *1291:S 0.000157191
34 *1195:S *309:47 0.000218175
35 *1195:S *309:61 0
36 *293:14 *1193:A0 8.76257e-05
37 *293:32 *1161:A2 0.000351972
38 *293:32 *1161:A3 8.62409e-05
39 *293:32 *1167:S1 0
40 *293:32 *1193:A0 5.71472e-05
41 *293:32 *1289:A0 0.000103773
42 *293:32 *309:37 0
43 *293:32 *311:34 0
44 *293:32 *415:8 2.26973e-05
45 *293:32 *444:216 6.05269e-05
46 *293:38 *309:37 0
47 *293:38 *309:47 0
48 *293:38 *444:206 0
49 *293:38 *444:216 0.000233468
50 *293:59 *1219:S 9.71197e-05
51 *293:59 *1288:S 8.46829e-05
52 *293:59 *1306:A0 0
53 *293:59 *311:73 0
54 *293:59 *444:168 7.65804e-05
55 *1169:A2 *1189:S 0.000531286
56 *1187:B *293:6 4.0342e-06
57 *1189:A1 *1189:S 1.92905e-05
58 *1190:A1 *1190:S 4.22908e-05
59 *1193:A1 *293:14 9.76491e-05
60 *1193:A1 *293:32 2.89114e-05
61 *1194:A1 *1189:S 0
62 *1337:D *1189:S 0
63 *1338:D *1190:S 9.71197e-05
64 *1341:D *293:32 0
65 *1360:CLK *293:8 4.95055e-05
66 *1360:D *293:8 3.54129e-05
67 *1364:CLK *293:59 0
68 *1364:D *293:59 0
69 *1416:CLK *293:14 0.000184745
70 *1417:D *1189:S 6.67621e-05
71 *1419:CLK *1190:S 0
72 *1420:D *1195:S 0
73 *1421:D *293:32 0.000157899
74 *1434:D *1190:S 0
75 *78:10 *293:42 0.000182799
76 *78:10 *293:59 0.000412515
77 *78:23 *293:42 0.000344377
78 *78:33 *1195:S 0
79 *78:35 *1195:S 0
80 *78:37 *1195:S 0
81 *85:20 *1189:S 4.19671e-05
82 *85:24 *1189:S 5.67246e-05
83 *87:92 *293:6 5.88177e-05
84 *87:92 *293:8 7.2832e-05
85 *104:118 *293:6 0
86 *108:74 *293:38 4.80729e-05
87 *108:74 *293:42 0.000551363
88 *109:190 *293:6 8.10875e-05
89 *109:190 *293:8 0.000193353
90 *109:190 *293:14 0.000283594
91 *109:194 *293:14 4.65385e-05
92 *239:14 *1189:S 1.98839e-05
93 *261:14 *1191:S 0.000494348
94 *277:30 *293:8 8.13338e-05
95 *277:30 *293:14 0.000318055
96 *283:22 *1189:S 8.18783e-05
97 *285:12 *1188:S 0.000445221
98 *286:22 *1189:S 0
*RES
1 *1187:Y *293:6 13.4584 
2 *293:6 *293:8 9.85153 
3 *293:8 *293:14 20.7179 
4 *293:14 *293:32 27.5199 
5 *293:32 *293:38 16.5347 
6 *293:38 *293:42 13.9307 
7 *293:42 *1195:S 36.5179 
8 *293:42 *293:59 17.8466 
9 *293:59 *1194:S 9.3 
10 *293:59 *1189:S 39.0179 
11 *293:38 *1192:S 13.8 
12 *293:32 *1190:S 19.8891 
13 *293:14 *1193:S 9.3 
14 *293:8 *1188:S 26.0476 
15 *293:6 *1191:S 34.0427 
*END

*D_NET *294 0.00293794
*CONN
*I *1208:B I *D sky130_fd_sc_hd__nand3_1
*I *1319:B I *D sky130_fd_sc_hd__nand2b_1
*I *1196:Y O *D sky130_fd_sc_hd__nor2_1
*CAP
1 *1208:B 0
2 *1319:B 0.000264596
3 *1196:Y 0.000248573
4 *294:12 0.000513169
5 *1319:B *1208:C 0.000121924
6 *1319:B *307:20 3.68685e-05
7 *1319:B *313:10 9.23811e-05
8 *1319:B *443:68 0
9 *294:12 *1136:S1 0.000246794
10 *294:12 *492:32 2.89016e-05
11 *1208:A *294:12 0.000414872
12 *1440:CLK *1319:B 0.000156117
13 *1440:D *1319:B 0.000360308
14 *110:16 *294:12 0
15 *128:42 *294:12 0.000122754
16 *257:30 *294:12 0
17 *259:16 *1319:B 0.00033068
*RES
1 *1196:Y *294:12 28.8941 
2 *294:12 *1319:B 22.3817 
3 *294:12 *1208:B 9.3 
*END

*D_NET *295 0.00310405
*CONN
*I *1198:C I *D sky130_fd_sc_hd__or3_1
*I *1310:A I *D sky130_fd_sc_hd__nor2_1
*I *1256:B I *D sky130_fd_sc_hd__nor2_1
*I *1197:Y O *D sky130_fd_sc_hd__nand3b_1
*CAP
1 *1198:C 2.97081e-05
2 *1310:A 0.000217647
3 *1256:B 0.000222513
4 *1197:Y 0
5 *295:17 0.000275337
6 *295:4 0.000250494
7 *1256:B *1175:A_N 2.89114e-05
8 *1256:B *1175:B 0.000345257
9 *1256:B *1226:B 2.87555e-06
10 *1256:B *1263:S 1.00733e-05
11 *1256:B *306:6 1.24368e-05
12 *1310:A *1217:B 0.00022459
13 *1310:A *1236:A_N 0
14 *1310:A *1247:B 0.000198835
15 *1310:A *1265:B 0
16 *1310:A *1310:B 5.33005e-05
17 *1310:A *302:8 3.3283e-05
18 *1310:A *304:29 0.000177948
19 *1310:A *310:12 0.000128154
20 *1310:A *490:44 5.28368e-06
21 *1310:A *491:78 0.000176234
22 *295:17 *304:29 4.23378e-05
23 *295:17 *491:78 5.1588e-05
24 *1197:B *1198:C 4.87953e-05
25 *1256:A *1256:B 6.12093e-05
26 *1424:CLK *1198:C 9.60939e-05
27 *1424:CLK *1256:B 0.000301438
28 *104:118 *1310:A 4.51611e-05
29 *104:133 *1256:B 0
30 *290:8 *1256:B 6.4549e-05
*RES
1 *1197:Y *295:4 9.3 
2 *295:4 *1256:B 18.4585 
3 *295:4 *295:17 5.51486 
4 *295:17 *1310:A 23.8991 
5 *295:17 *1198:C 15.1119 
*END

*D_NET *296 0.0221846
*CONN
*I *1202:S I *D sky130_fd_sc_hd__mux2_1
*I *1199:S I *D sky130_fd_sc_hd__mux2_1
*I *1204:S I *D sky130_fd_sc_hd__mux2_1
*I *1201:S I *D sky130_fd_sc_hd__mux2_1
*I *1203:S I *D sky130_fd_sc_hd__mux2_1
*I *1200:S I *D sky130_fd_sc_hd__mux2_1
*I *1206:S I *D sky130_fd_sc_hd__mux2_1
*I *1205:S I *D sky130_fd_sc_hd__mux2_1
*I *1198:X O *D sky130_fd_sc_hd__or3_1
*CAP
1 *1202:S 0.000317114
2 *1199:S 0.000361739
3 *1204:S 1.88369e-05
4 *1201:S 0
5 *1203:S 7.72279e-05
6 *1200:S 0.00109104
7 *1206:S 8.78291e-05
8 *1205:S 0.000144259
9 *1198:X 0.000529711
10 *296:114 0.00120466
11 *296:97 0.000561352
12 *296:62 0.00155073
13 *296:32 0.00086836
14 *296:26 0.00128726
15 *296:20 0.00100532
16 *296:10 0.00128322
17 *1199:S *1154:S0 3.43988e-06
18 *1199:S *445:80 0
19 *1200:S *1142:A2 1.40415e-05
20 *1200:S *1142:S1 1.65169e-05
21 *1200:S *1166:A2 0.000138917
22 *1200:S *1166:A3 0.000202835
23 *1200:S *1200:A1 5.71472e-05
24 *1200:S *1249:A0 1.84708e-05
25 *1200:S *1272:A0 0
26 *1200:S *1294:A0 0.000134758
27 *1200:S *1294:S 0
28 *1200:S *1326:A1 3.20153e-05
29 *1200:S *1326:S 7.48002e-05
30 *1200:S *307:34 2.8266e-06
31 *1200:S *307:40 0
32 *1202:S *1144:S1 0.000255052
33 *1202:S *1163:A3 1.08359e-05
34 *1202:S *1271:A0 8.25644e-05
35 *1202:S *298:38 0
36 *1202:S *307:100 9.00795e-06
37 *1202:S *307:109 3.06878e-06
38 *1202:S *407:8 5.33005e-05
39 *1202:S *443:34 0.000295851
40 *1203:S *307:34 7.67903e-05
41 *1205:S *1249:S 8.85652e-05
42 *1206:S *1249:S 8.25843e-06
43 *1206:S *312:77 0.000139913
44 *296:10 *1204:A1 2.48938e-05
45 *296:10 *1217:B 4.37966e-05
46 *296:10 *1236:A_N 9.33978e-07
47 *296:10 *1237:C 0
48 *296:10 *1293:A0 0.00013073
49 *296:10 *297:8 0.000101417
50 *296:10 *297:33 2.09826e-05
51 *296:10 *305:12 0.000198494
52 *296:10 *307:20 5.99125e-05
53 *296:10 *313:10 0
54 *296:10 *338:10 0
55 *296:20 *1201:A1 0.000124469
56 *296:20 *1204:A1 0.000205271
57 *296:20 *1296:S 0.000133005
58 *296:20 *305:12 0.000164964
59 *296:20 *431:10 0.000106403
60 *296:20 *445:116 4.89268e-05
61 *296:20 *445:137 0
62 *296:20 *445:150 0.000135709
63 *296:26 *1201:A1 1.02504e-05
64 *296:26 *1252:S 0.000324889
65 *296:26 *312:42 0.000451116
66 *296:26 *443:88 0
67 *296:26 *445:150 0
68 *296:32 *1169:S0 0
69 *296:32 *1169:S1 0
70 *296:32 *1317:S 3.34366e-05
71 *296:32 *312:42 0.000511085
72 *296:32 *312:46 0.00072328
73 *296:32 *443:92 0
74 *296:62 *1157:A0 0
75 *296:62 *1203:A1 0
76 *296:62 *1252:S 5.33005e-05
77 *296:97 *1296:S 5.33005e-05
78 *296:114 *1296:S 3.63889e-05
79 *296:114 *307:22 0.000127267
80 *296:114 *307:100 0.000186128
81 *1092:A0 *1202:S 5.74499e-06
82 *1139:A0 *1199:S 0
83 *1159:A0 *1203:S 2.59355e-05
84 *1162:S0 *296:20 0.000120439
85 *1164:A0 *296:10 4.81157e-05
86 *1164:A1 *296:10 4.25539e-05
87 *1164:A1 *296:20 6.8646e-06
88 *1174:A1 *296:32 0
89 *1206:A0 *1205:S 2.89114e-05
90 *1206:A0 *1206:S 4.43256e-05
91 *1206:A0 *296:32 0.000609768
92 *1244:A0 *1200:S 0
93 *1315:A1 *296:26 0
94 *1317:A1 *1205:S 0.000134184
95 *1345:D *1200:S 5.33005e-05
96 *1348:CLK *296:62 5.33005e-05
97 *1348:D *296:62 0.000447651
98 *1381:CLK *1202:S 3.69047e-06
99 *1384:CLK *296:10 6.8646e-06
100 *1384:D *296:10 9.14522e-05
101 *1405:D *296:114 6.09682e-05
102 *1406:CLK *296:32 0
103 *1424:D *296:10 0.000168963
104 *1425:D *1200:S 7.49425e-05
105 *1427:D *296:20 0
106 *1444:D *296:26 0.000141466
107 *1444:D *296:32 0.000263869
108 *68:20 *1199:S 0.000193153
109 *68:216 *1199:S 1.24381e-05
110 *88:12 *1200:S 0
111 *88:110 *1200:S 0
112 *90:47 *296:20 0
113 *90:57 *296:20 3.69865e-05
114 *90:66 *296:10 8.45293e-05
115 *99:14 *1202:S 4.53889e-05
116 *99:14 *296:114 0.000234289
117 *104:66 *1199:S 4.88637e-05
118 *104:82 *1199:S 0.00054729
119 *104:94 *296:10 0
120 *105:42 *1200:S 1.00073e-05
121 *105:48 *1200:S 4.8035e-05
122 *106:115 *1199:S 0.000362653
123 *106:165 *296:20 0.000109918
124 *108:40 *1203:S 5.33005e-05
125 *108:40 *296:62 0
126 *109:139 *296:97 2.89114e-05
127 *109:139 *296:114 0.000180805
128 *109:143 *1204:S 3.99614e-06
129 *110:16 *1200:S 0.000246064
130 *110:16 *1203:S 0.000194299
131 *110:30 *1200:S 0
132 *111:47 *296:32 0.000125724
133 *111:49 *296:32 8.32242e-05
134 *114:60 *1200:S 0.000354111
135 *257:30 *296:10 0.000122888
136 *261:24 *296:62 0.000343559
137 *273:26 *296:62 5.71416e-05
138 *280:16 *1199:S 0.000105696
*RES
1 *1198:X *296:10 35.6813 
2 *296:10 *296:20 36.2279 
3 *296:20 *296:26 10.9778 
4 *296:26 *296:32 35.5026 
5 *296:32 *1205:S 15.1911 
6 *296:32 *1206:S 12.3446 
7 *296:26 *296:62 24.1733 
8 *296:62 *1200:S 47.5378 
9 *296:62 *1203:S 18.0822 
10 *296:20 *1201:S 13.8 
11 *296:10 *296:97 5.24258 
12 *296:97 *1204:S 9.89406 
13 *296:97 *296:114 20.4952 
14 *296:114 *1199:S 35.3793 
15 *296:114 *1202:S 30.1812 
*END

*D_NET *297 0.00613318
*CONN
*I *1237:C I *D sky130_fd_sc_hd__nand4b_1
*I *1208:C I *D sky130_fd_sc_hd__nand3_1
*I *1217:B I *D sky130_fd_sc_hd__nand2b_1
*I *1207:Y O *D sky130_fd_sc_hd__nor2_1
*CAP
1 *1237:C 0.000432698
2 *1208:C 0.000308184
3 *1217:B 0.000252369
4 *1207:Y 0.000242703
5 *297:33 0.000942141
6 *297:8 0.00069633
7 *1208:C *1248:A0 0.000145747
8 *1208:C *313:10 9.25014e-06
9 *1208:C *443:68 3.52077e-05
10 *1217:B *1236:B 6.26774e-06
11 *1217:B *1265:B 2.89016e-05
12 *1217:B *299:12 0.000110374
13 *1217:B *302:8 7.1076e-05
14 *1217:B *442:84 1.54027e-05
15 *1237:C *1136:A2 0.000118604
16 *1237:C *1136:A3 1.1979e-05
17 *1237:C *1248:A0 4.46186e-06
18 *1237:C *338:10 3.20153e-05
19 *1237:C *491:28 9.71197e-05
20 *297:8 *491:57 0
21 *297:33 *1136:A2 1.42064e-05
22 *297:33 *1293:A0 2.28261e-05
23 *1310:A *1217:B 0.00022459
24 *1319:B *1208:C 0.000121924
25 *1344:D *1237:C 0.00050879
26 *1384:CLK *1217:B 9.3242e-05
27 *1384:CLK *297:8 5.93245e-05
28 *1384:D *1208:C 0
29 *1384:D *1237:C 0
30 *1384:D *297:33 5.18845e-05
31 *1440:CLK *1217:B 5.52302e-05
32 *1440:D *1208:C 0.000181796
33 *104:118 *1217:B 7.49387e-06
34 *110:16 *1237:C 0
35 *128:27 *1237:C 6.42095e-05
36 *257:30 *1237:C 0.000187461
37 *259:16 *1217:B 0.000621708
38 *259:16 *297:33 0.000183035
39 *292:10 *297:8 0
40 *292:33 *1217:B 8.43535e-06
41 *296:10 *1217:B 4.37966e-05
42 *296:10 *1237:C 0
43 *296:10 *297:8 0.000101417
44 *296:10 *297:33 2.09826e-05
*RES
1 *1207:Y *297:8 20.9164 
2 *297:8 *1217:B 26.102 
3 *297:8 *297:33 16.5619 
4 *297:33 *1208:C 24.1466 
5 *297:33 *1237:C 30.2357 
*END

*D_NET *298 0.0197459
*CONN
*I *1214:S I *D sky130_fd_sc_hd__mux2_1
*I *1209:S I *D sky130_fd_sc_hd__mux2_1
*I *1212:S I *D sky130_fd_sc_hd__mux2_1
*I *1213:S I *D sky130_fd_sc_hd__mux2_1
*I *1210:S I *D sky130_fd_sc_hd__mux2_1
*I *1216:S I *D sky130_fd_sc_hd__mux2_1
*I *1211:S I *D sky130_fd_sc_hd__mux2_1
*I *1215:S I *D sky130_fd_sc_hd__mux2_1
*I *1208:Y O *D sky130_fd_sc_hd__nand3_1
*CAP
1 *1214:S 0.000235067
2 *1209:S 0.000151524
3 *1212:S 0
4 *1213:S 0
5 *1210:S 0.000295637
6 *1216:S 0.000255609
7 *1211:S 4.15468e-05
8 *1215:S 0.000817376
9 *1208:Y 0.000638823
10 *298:86 0.00102994
11 *298:82 0.000973223
12 *298:78 0.00108568
13 *298:72 0.00126075
14 *298:38 0.00152278
15 *298:26 0.00135389
16 *298:20 0.00104584
17 *1209:S *1209:A1 2.8266e-06
18 *1209:S *1266:S 0
19 *1210:S *1143:A0 0
20 *1210:S *1210:A1 0.000319134
21 *1210:S *1267:A0 0
22 *1210:S *1267:S 3.06406e-05
23 *1210:S *315:10 6.81335e-05
24 *1210:S *371:10 5.71472e-05
25 *1211:S *1211:A1 2.14658e-05
26 *1214:S *1163:S1 2.09413e-05
27 *1214:S *1214:A1 0
28 *1214:S *303:14 0.000167001
29 *1215:S *1144:S0 5.62164e-05
30 *1215:S *1144:S1 0.00014285
31 *1215:S *1166:A1 0
32 *1215:S *1244:A1 0
33 *1215:S *303:34 0.000130754
34 *1215:S *307:63 3.30781e-05
35 *1215:S *313:64 0.000301676
36 *1215:S *316:10 0
37 *1215:S *320:10 2.80937e-05
38 *298:20 *1136:S1 0
39 *298:20 *1139:S1 3.06878e-06
40 *298:20 *1163:S0 0
41 *298:20 *1163:S1 5.33005e-05
42 *298:20 *442:58 2.217e-05
43 *298:20 *443:68 0.000529873
44 *298:20 *445:80 4.38409e-05
45 *298:26 *1163:S1 0.000248782
46 *298:26 *303:14 0.000116267
47 *298:26 *313:29 0.000342784
48 *298:38 *1144:S1 0
49 *298:38 *1243:A1 2.79421e-05
50 *298:38 *303:14 0.00013059
51 *298:38 *303:26 0.000768134
52 *298:38 *303:34 0
53 *298:38 *307:109 0.000221641
54 *298:38 *313:29 6.84616e-05
55 *298:72 *1243:A1 7.02611e-05
56 *298:72 *1266:S 8.79327e-05
57 *298:72 *307:109 0
58 *298:78 *373:6 0
59 *298:82 *1241:A1 0
60 *298:82 *1241:S 0.000615779
61 *298:86 *1241:S 0.000397148
62 *298:86 *303:55 0.000719053
63 *298:86 *315:10 0
64 *1089:A0 *298:78 0
65 *1092:A0 *298:72 0.000479132
66 *1092:A1 *298:78 0
67 *1094:A0 *1215:S 0
68 *1094:A0 *1216:S 9.8883e-06
69 *1099:CLK *298:78 0
70 *1101:D *298:82 0
71 *1102:D *298:78 0.000199612
72 *1104:CLK *298:78 0
73 *1104:D *298:72 2.89114e-05
74 *1104:D *298:78 7.0758e-05
75 *1110:A *298:78 0
76 *1130:A *298:38 2.06112e-05
77 *1139:A0 *298:20 1.11474e-05
78 *1139:A2 *298:20 6.20547e-05
79 *1144:A2 *1215:S 0.000185643
80 *1202:S *298:38 0
81 *1209:A0 *1209:S 1.08359e-05
82 *1211:A0 *1211:S 8.76257e-05
83 *1211:A0 *1215:S 0.000185824
84 *1353:D *1210:S 5.24968e-05
85 *1353:D *1216:S 5.00962e-05
86 *1353:D *298:86 0
87 *1354:CLK *1211:S 0
88 *1354:D *1215:S 6.57677e-05
89 *1357:D *298:20 0.000102303
90 *1377:CLK *1216:S 2.89114e-05
91 *1379:D *298:82 0
92 *1381:CLK *298:38 0
93 *1381:CLK *298:72 9.0145e-05
94 *1400:D *1209:S 3.34366e-05
95 *1451:D *298:38 2.72449e-05
96 *1452:D *1215:S 0
97 *50:291 *298:78 0
98 *81:28 *298:20 0
99 *81:40 *298:20 0
100 *89:105 *1216:S 8.46044e-06
101 *97:12 *298:78 1.78353e-05
102 *100:20 *1216:S 3.4855e-05
103 *100:42 *1210:S 0.000222806
104 *100:42 *1216:S 0.000414079
105 *109:115 *298:38 0.000105696
106 *111:12 *298:38 3.67356e-05
107 *111:18 *1215:S 0
108 *111:18 *298:38 0.000131958
109 *114:226 *1211:S 0.000183726
110 *114:226 *1215:S 0.0001839
111 *114:242 *298:38 0
112 *259:16 *298:20 2.72859e-05
113 *263:14 *1215:S 2.14658e-05
114 *271:28 *298:20 0
115 *280:16 *298:20 0
*RES
1 *1208:Y *298:20 41.711 
2 *298:20 *298:26 8.24262 
3 *298:26 *298:38 40.01 
4 *298:38 *1215:S 47.4091 
5 *298:38 *1211:S 11.7505 
6 *298:26 *298:72 27.9605 
7 *298:72 *298:78 21.7278 
8 *298:78 *298:82 18.1387 
9 *298:82 *298:86 23.609 
10 *298:86 *1216:S 19.2258 
11 *298:86 *1210:S 30.206 
12 *298:82 *1213:S 13.8 
13 *298:78 *1212:S 9.3 
14 *298:72 *1209:S 17.7604 
15 *298:20 *1214:S 20.2852 
*END

*D_NET *299 0.0160858
*CONN
*I *1218:S I *D sky130_fd_sc_hd__mux2_1
*I *1223:S I *D sky130_fd_sc_hd__mux2_1
*I *1221:S I *D sky130_fd_sc_hd__mux2_1
*I *1222:S I *D sky130_fd_sc_hd__mux2_1
*I *1219:S I *D sky130_fd_sc_hd__mux2_1
*I *1224:S I *D sky130_fd_sc_hd__mux2_1
*I *1225:S I *D sky130_fd_sc_hd__mux2_1
*I *1220:S I *D sky130_fd_sc_hd__mux2_1
*I *1217:Y O *D sky130_fd_sc_hd__nand2b_1
*CAP
1 *1218:S 0.000153189
2 *1223:S 0.00038319
3 *1221:S 0
4 *1222:S 3.96115e-05
5 *1219:S 0.000582148
6 *1224:S 0.000248437
7 *1225:S 0.000439113
8 *1220:S 2.88302e-05
9 *1217:Y 0.000227522
10 *299:49 0.000913713
11 *299:45 0.00111508
12 *299:43 0.000569891
13 *299:32 0.00111073
14 *299:20 0.00103602
15 *299:14 0.000737253
16 *299:12 0.000557134
17 *1218:S *1218:A1 0.000113076
18 *1218:S *1284:S 0
19 *1218:S *309:10 0
20 *1219:S *1157:S1 9.0145e-05
21 *1219:S *1285:S 1.50524e-05
22 *1219:S *444:168 1.04066e-05
23 *1223:S *383:6 0.000109918
24 *1224:S *1224:A1 0.000271345
25 *1225:S *1165:A2 9.25014e-06
26 *1225:S *1165:A3 0
27 *1225:S *1171:A0 0
28 *1225:S *1171:S1 0
29 *1225:S *1225:A1 0
30 *299:12 *1137:S0 7.14165e-05
31 *299:12 *1302:A0 0.000437775
32 *299:12 *309:8 0
33 *299:12 *442:84 0.000228956
34 *299:14 *1218:A1 2.26327e-05
35 *299:14 *309:10 0
36 *299:14 *378:14 4.6083e-05
37 *299:14 *386:10 0.000302417
38 *299:20 *1221:A1 4.46186e-06
39 *299:20 *309:10 0
40 *299:32 *1150:A1 8.16132e-05
41 *299:32 *1221:A1 0.000424585
42 *299:32 *305:22 0
43 *299:32 *309:10 0.000205616
44 *299:32 *309:101 7.08001e-05
45 *299:32 *348:10 0
46 *299:32 *381:10 4.58192e-05
47 *299:43 *1285:S 0
48 *299:43 *380:12 0.000133005
49 *299:45 *1222:A1 0
50 *299:45 *1285:A0 0
51 *299:45 *1285:S 0
52 *299:45 *444:192 0.000101867
53 *299:49 *1165:A2 0
54 *299:49 *1165:A3 0.000225314
55 *299:49 *1194:A0 0.000276809
56 *299:49 *444:172 7.79781e-06
57 *299:49 *444:192 3.88892e-05
58 *1126:A *299:32 2.34423e-05
59 *1165:S0 *299:49 2.72449e-05
60 *1189:S *1219:S 6.87574e-05
61 *1189:S *1224:S 4.45768e-06
62 *1194:A1 *1225:S 0
63 *1194:A1 *299:49 0.000664422
64 *1217:B *299:12 0.000110374
65 *1221:A0 *299:32 2.44318e-05
66 *1285:A1 *1219:S 0
67 *1290:A1 *1225:S 7.10712e-05
68 *1302:A1 *299:12 9.90431e-05
69 *1339:D *299:32 0
70 *1360:D *1218:S 0
71 *1360:D *299:14 0
72 *1366:CLK *1224:S 0.000132758
73 *1366:CLK *1225:S 0.000144788
74 *1386:CLK *299:32 0
75 *1388:CLK *1219:S 1.55953e-05
76 *1417:D *299:45 4.08289e-05
77 *1417:D *299:49 6.07232e-05
78 *1432:CLK *1223:S 7.09054e-05
79 *1432:CLK *299:14 0.000132442
80 *1432:D *1223:S 0.000575591
81 *1433:D *1219:S 0.000248173
82 *85:8 *1219:S 8.46507e-06
83 *85:14 *1219:S 0.000106455
84 *85:20 *1219:S 7.15962e-05
85 *104:118 *299:12 0.000413888
86 *105:66 *1219:S 9.71197e-05
87 *105:76 *1219:S 5.33005e-05
88 *106:186 *299:32 0
89 *106:207 *1220:S 5.33005e-05
90 *106:207 *299:32 0.000572753
91 *107:148 *299:14 0
92 *107:148 *299:20 0
93 *108:68 *1222:S 5.33334e-05
94 *109:190 *1223:S 0.000183396
95 *164:16 *1223:S 8.98664e-05
96 *239:14 *1224:S 6.74669e-05
97 *261:24 *1219:S 3.04498e-05
98 *273:10 *299:43 0
99 *273:26 *1222:S 0
100 *277:30 *299:14 0
101 *278:20 *1223:S 4.00045e-05
102 *278:20 *299:32 4.43256e-05
103 *283:22 *1224:S 0.00010096
104 *283:22 *1225:S 0
105 *285:26 *299:32 0
106 *293:59 *1219:S 9.71197e-05
*RES
1 *1217:Y *299:12 26.1268 
2 *299:12 *299:14 7.74756 
3 *299:14 *299:20 7.94061 
4 *299:20 *299:32 40.1388 
5 *299:32 *1220:S 10.0426 
6 *299:32 *299:43 11.406 
7 *299:43 *299:45 9.00995 
8 *299:45 *299:49 18.1387 
9 *299:49 *1225:S 31.3446 
10 *299:49 *1224:S 18.805 
11 *299:45 *1219:S 34.5179 
12 *299:43 *1222:S 15.1119 
13 *299:20 *1221:S 9.3 
14 *299:14 *1223:S 30.3842 
15 *299:12 *1218:S 18.0822 
*END

*D_NET *300 0.00115688
*CONN
*I *1227:B I *D sky130_fd_sc_hd__nor2_1
*I *1226:Y O *D sky130_fd_sc_hd__nand2_1
*CAP
1 *1227:B 0.000302027
2 *1226:Y 0.000302027
3 *1227:B *1226:B 2.06178e-05
4 *1227:B *301:14 2.89016e-05
5 *1227:B *442:122 4.33002e-05
6 *1180:S *1227:B 9.60337e-06
7 *1227:A *1227:B 0.000311423
8 *110:230 *1227:B 6.26177e-05
9 *111:197 *1227:B 4.00276e-06
10 *257:10 *1227:B 2.62984e-05
11 *257:30 *1227:B 4.60645e-05
*RES
1 *1226:Y *1227:B 38.7388 
*END

*D_NET *301 0.0159634
*CONN
*I *1231:S I *D sky130_fd_sc_hd__mux2_1
*I *1232:S I *D sky130_fd_sc_hd__mux2_1
*I *1230:S I *D sky130_fd_sc_hd__mux2_1
*I *1228:S I *D sky130_fd_sc_hd__mux2_1
*I *1233:S I *D sky130_fd_sc_hd__mux2_1
*I *1229:S I *D sky130_fd_sc_hd__mux2_1
*I *1235:S I *D sky130_fd_sc_hd__mux2_1
*I *1234:S I *D sky130_fd_sc_hd__mux2_1
*I *1227:Y O *D sky130_fd_sc_hd__nor2_1
*CAP
1 *1231:S 0
2 *1232:S 6.44638e-05
3 *1230:S 6.90822e-05
4 *1228:S 0.000295696
5 *1233:S 0.000138906
6 *1229:S 0.000700931
7 *1235:S 0
8 *1234:S 0.000198032
9 *1227:Y 0.000129951
10 *301:97 0.000748314
11 *301:91 0.000718099
12 *301:70 0.00124425
13 *301:62 0.000769146
14 *301:37 0.000605155
15 *301:20 0.00082656
16 *301:14 0.000649994
17 *1228:S *1228:A0 0
18 *1228:S *327:8 4.97621e-05
19 *1229:S *1145:A3 0
20 *1229:S *1145:S0 0.000128248
21 *1229:S *1145:S1 0
22 *1229:S *1229:A0 3.67142e-05
23 *1229:S *1276:S 0.000102679
24 *1229:S *1277:A0 0
25 *1229:S *308:46 6.54721e-05
26 *1229:S *356:10 0.000224577
27 *1229:S *442:172 0
28 *1229:S *444:336 0
29 *1230:S *1262:S 3.00893e-05
30 *1234:S *1281:S 0
31 *1234:S *308:16 3.32631e-05
32 *301:14 *306:23 0.000153769
33 *301:14 *308:12 0.000135028
34 *301:20 *1231:A0 5.03772e-05
35 *301:20 *1282:A0 5.52302e-05
36 *301:20 *308:12 0.000700369
37 *301:20 *308:16 0.000285792
38 *301:37 *1281:S 4.35131e-05
39 *301:37 *308:31 8.81278e-05
40 *301:62 *1279:A0 5.93294e-05
41 *301:62 *1279:S 0
42 *301:62 *308:31 0.000183933
43 *301:62 *308:46 0.00065703
44 *301:70 *308:46 5.98882e-05
45 *301:70 *308:54 0
46 *301:70 *444:336 0
47 *301:91 *1262:S 5.01876e-06
48 *301:91 *1275:S 0
49 *301:91 *1277:A0 3.42457e-05
50 *301:91 *308:54 0
51 *301:91 *308:63 0
52 *301:97 *1262:S 9.21929e-05
53 *301:97 *359:12 0.000180363
54 *301:97 *367:10 0
55 *1182:A1 *1228:S 0
56 *1182:S *1228:S 7.53317e-05
57 *1184:S *301:20 0.000167988
58 *1227:A *301:14 1.21258e-05
59 *1227:B *301:14 2.89016e-05
60 *1233:A1 *1233:S 3.69047e-06
61 *1235:A1 *301:20 5.52302e-05
62 *1279:A1 *301:62 0.000128875
63 *1280:A1 *301:97 0
64 *1281:A1 *1234:S 4.25427e-05
65 *1333:D *1228:S 0.00044366
66 *1333:D *1233:S 0.000103323
67 *1368:D *1228:S 4.0552e-05
68 *1369:D *1229:S 0.000228558
69 *1370:D *301:70 0
70 *1370:D *301:91 0
71 *1372:D *301:62 9.45019e-05
72 *1374:CLK *1234:S 9.71197e-05
73 *1396:D *301:62 0.000141981
74 *1397:D *301:97 6.72808e-05
75 *1398:CLK *1234:S 8.15939e-05
76 *1412:D *301:62 0.000429308
77 *1415:CLK *301:62 0.000177941
78 *79:37 *1229:S 1.21258e-05
79 *79:88 *1233:S 0
80 *79:95 *1233:S 0
81 *92:28 *301:62 1.79387e-05
82 *105:221 *1229:S 1.24368e-05
83 *106:57 *1229:S 1.00073e-05
84 *107:148 *301:14 0.000155476
85 *108:223 *1232:S 5.33005e-05
86 *108:223 *301:70 5.52302e-05
87 *109:48 *1228:S 0.000689234
88 *109:48 *1233:S 0.000285329
89 *110:241 *1234:S 8.3601e-05
90 *110:241 *301:20 0.000193081
91 *111:197 *301:14 7.51317e-05
92 *111:197 *301:20 0.000226265
93 *111:199 *301:20 5.33005e-05
94 *111:201 *301:20 0.000659775
95 *290:42 *1229:S 0.000139907
96 *290:59 *1229:S 0.000207153
*RES
1 *1227:Y *301:14 24.1911 
2 *301:14 *301:20 28.119 
3 *301:20 *1234:S 25.5773 
4 *301:20 *301:37 8.46042 
5 *301:37 *1235:S 13.8 
6 *301:37 *301:62 38.1536 
7 *301:62 *301:70 10.9357 
8 *301:70 *1229:S 37.2902 
9 *301:70 *301:91 9.22034 
10 *301:91 *301:97 15.3045 
11 *301:97 *1233:S 14.6466 
12 *301:97 *1228:S 23.5823 
13 *301:91 *1230:S 15.4956 
14 *301:62 *1232:S 11.1812 
15 *301:14 *1231:S 9.3 
*END

*D_NET *302 0.00117577
*CONN
*I *1265:B I *D sky130_fd_sc_hd__nor2_1
*I *1247:A I *D sky130_fd_sc_hd__nor2_1
*I *1310:B I *D sky130_fd_sc_hd__nor2_1
*I *1236:Y O *D sky130_fd_sc_hd__nand2b_1
*CAP
1 *1265:B 2.23686e-05
2 *1247:A 0.000105603
3 *1310:B 2.14161e-05
4 *1236:Y 0
5 *302:8 0.000217211
6 *302:4 0.00011256
7 *1247:A *1236:A_N 4.46186e-06
8 *1247:A *305:6 3.18676e-05
9 *1247:A *310:12 4.38511e-05
10 *1247:A *312:10 4.66777e-05
11 *302:8 *1236:B 1.38106e-05
12 *302:8 *312:10 0.000140933
13 *1187:B *1247:A 5.52302e-05
14 *1187:B *1310:B 0
15 *1187:B *302:8 7.33786e-06
16 *1217:B *1265:B 2.89016e-05
17 *1217:B *302:8 7.1076e-05
18 *1310:A *1265:B 0
19 *1310:A *1310:B 5.33005e-05
20 *1310:A *302:8 3.3283e-05
21 *104:118 *1247:A 5.66157e-05
22 *104:118 *1310:B 6.05161e-06
23 *292:33 *1265:B 4.7979e-05
24 *292:33 *302:8 5.52302e-05
*RES
1 *1236:Y *302:4 9.3 
2 *302:4 *302:8 4.18319 
3 *302:8 *1310:B 10.0426 
4 *302:8 *1247:A 22.1614 
5 *302:4 *1265:B 10.6366 
*END

*D_NET *303 0.0213128
*CONN
*I *1238:S I *D sky130_fd_sc_hd__mux2_1
*I *1243:S I *D sky130_fd_sc_hd__mux2_1
*I *1240:S I *D sky130_fd_sc_hd__mux2_1
*I *1244:S I *D sky130_fd_sc_hd__mux2_1
*I *1239:S I *D sky130_fd_sc_hd__mux2_1
*I *1241:S I *D sky130_fd_sc_hd__mux2_1
*I *1242:S I *D sky130_fd_sc_hd__mux2_1
*I *1245:S I *D sky130_fd_sc_hd__mux2_1
*I *1237:Y O *D sky130_fd_sc_hd__nand4b_1
*CAP
1 *1238:S 0.000426856
2 *1243:S 0
3 *1240:S 0
4 *1244:S 0
5 *1239:S 9.91025e-05
6 *1241:S 0.000544419
7 *1242:S 3.39011e-05
8 *1245:S 0
9 *1237:Y 0.00025085
10 *303:55 0.00115871
11 *303:51 0.000975806
12 *303:40 0.000814059
13 *303:34 0.00100075
14 *303:26 0.000844962
15 *303:14 0.000805502
16 *303:8 0.00112124
17 *1238:S *445:60 3.46775e-05
18 *1238:S *490:30 0
19 *1239:S *1239:A1 8.07313e-05
20 *1241:S *1158:A0 0
21 *1241:S *1212:A1 0
22 *1242:S *1158:A1 6.05161e-06
23 *1242:S *374:10 1.21258e-05
24 *303:8 *490:30 7.10538e-05
25 *303:14 *1163:A3 4.32309e-05
26 *303:14 *1163:S1 0.000271247
27 *303:14 *1214:A1 0
28 *303:14 *1243:A1 0.000128154
29 *303:14 *313:29 1.59689e-05
30 *303:26 *307:109 7.32272e-05
31 *303:34 *1144:S1 0.00133234
32 *303:34 *313:64 0.000778324
33 *303:40 *1245:A1 5.33334e-05
34 *303:40 *1326:S 0.000209289
35 *303:40 *313:64 0.000210935
36 *303:40 *313:66 0.000336389
37 *303:40 *444:92 1.40131e-05
38 *303:51 *395:12 9.24825e-05
39 *303:55 *1143:A0 0
40 *303:55 *1239:A1 0.000193475
41 *303:55 *315:10 0
42 *303:55 *371:10 9.54627e-05
43 *1089:A0 *1241:S 0.000186662
44 *1212:A0 *1241:S 0
45 *1214:S *303:14 0.000167001
46 *1215:S *303:34 0.000130754
47 *1241:A0 *1241:S 0
48 *1242:A0 *1241:S 0
49 *1243:A0 *303:26 5.33005e-05
50 *1245:A0 *303:40 2.89114e-05
51 *1376:D *1238:S 5.33005e-05
52 *1377:CLK *303:55 0
53 *1377:D *1239:S 2.51343e-06
54 *1377:D *303:51 9.99644e-06
55 *1377:D *303:55 0.000301696
56 *1378:CLK *303:26 0
57 *1380:D *1241:S 0
58 *1401:CLK *303:51 0
59 *1449:CLK *303:51 0.000186078
60 *1449:D *303:51 9.14355e-05
61 *1451:D *303:26 0.000329733
62 *81:12 *1238:S 8.2395e-05
63 *81:20 *1238:S 4.46186e-06
64 *89:20 *303:40 0.000534222
65 *89:20 *303:51 9.90431e-05
66 *94:18 *1238:S 5.41794e-05
67 *96:16 *303:26 0.000357048
68 *97:12 *303:26 0
69 *104:66 *1238:S 3.99614e-06
70 *105:30 *1239:S 0.00010096
71 *105:34 *1239:S 0.000175251
72 *105:34 *303:51 0.000493359
73 *105:40 *303:40 0
74 *105:40 *303:51 9.10486e-05
75 *105:42 *303:40 0
76 *108:10 *1238:S 0
77 *109:107 *303:14 0.000128161
78 *111:12 *303:14 0.000427672
79 *111:12 *303:26 0.000321221
80 *111:18 *303:26 6.35239e-05
81 *111:47 *303:40 0.000198698
82 *114:242 *303:26 0
83 *114:242 *303:34 0.000118568
84 *128:16 *1238:S 0.000879865
85 *128:16 *303:8 0.000346724
86 *263:14 *303:34 0.000105567
87 *263:14 *303:40 0.000309787
88 *264:16 *303:55 0
89 *298:26 *303:14 0.000116267
90 *298:38 *303:14 0.00013059
91 *298:38 *303:26 0.000768134
92 *298:38 *303:34 0
93 *298:82 *1241:S 0.000615779
94 *298:86 *1241:S 0.000397148
95 *298:86 *303:55 0.000719053
*RES
1 *1237:Y *303:8 18.607 
2 *303:8 *303:14 28.9506 
3 *303:14 *303:26 29.4209 
4 *303:26 *303:34 32.5199 
5 *303:34 *303:40 27.4209 
6 *303:40 *1245:S 9.3 
7 *303:40 *303:51 14.4555 
8 *303:51 *303:55 28.6585 
9 *303:55 *1242:S 14.5426 
10 *303:55 *1241:S 33.6763 
11 *303:51 *1239:S 13.904 
12 *303:34 *1244:S 13.8 
13 *303:26 *1240:S 9.3 
14 *303:14 *1243:S 9.3 
15 *303:8 *1238:S 34.3149 
*END

*D_NET *304 0.00392932
*CONN
*I *1292:C I *D sky130_fd_sc_hd__nor3_1
*I *1247:B I *D sky130_fd_sc_hd__nor2_1
*I *1274:B I *D sky130_fd_sc_hd__nor2_1
*I *1246:Y O *D sky130_fd_sc_hd__nand3_1
*CAP
1 *1292:C 0
2 *1247:B 0.000225183
3 *1274:B 9.96861e-05
4 *1246:Y 0.000324107
5 *304:29 0.000399063
6 *304:12 0.000597674
7 *1247:B *305:6 7.43578e-06
8 *1247:B *310:12 9.74684e-05
9 *1274:B *493:82 4.46186e-06
10 *304:12 *1246:A 1.01912e-05
11 *304:12 *493:63 0.000298312
12 *304:29 *1185:B 7.50767e-05
13 *304:29 *491:78 1.01487e-05
14 *1164:A3 *1247:B 0
15 *1180:S *1274:B 0
16 *1187:A *1247:B 0.000363076
17 *1187:B *1247:B 0.000183726
18 *1246:C *304:12 4.19535e-05
19 *1310:A *1247:B 0.000198835
20 *1310:A *304:29 0.000177948
21 *128:42 *304:12 7.4607e-05
22 *128:46 *304:12 0.00021471
23 *257:30 *1274:B 2.90824e-05
24 *257:30 *304:12 5.99411e-05
25 *291:12 *304:29 0.000239878
26 *291:14 *1247:B 3.23658e-05
27 *291:14 *304:29 0.000122047
28 *295:17 *304:29 4.23378e-05
*RES
1 *1246:Y *304:12 19.3513 
2 *304:12 *1274:B 17.8022 
3 *304:12 *304:29 10.5264 
4 *304:29 *1247:B 23.1565 
5 *304:29 *1292:C 13.8 
*END

*D_NET *305 0.0203237
*CONN
*I *1248:S I *D sky130_fd_sc_hd__mux2_1
*I *1251:S I *D sky130_fd_sc_hd__mux2_1
*I *1253:S I *D sky130_fd_sc_hd__mux2_1
*I *1250:S I *D sky130_fd_sc_hd__mux2_1
*I *1252:S I *D sky130_fd_sc_hd__mux2_1
*I *1255:S I *D sky130_fd_sc_hd__mux2_1
*I *1254:S I *D sky130_fd_sc_hd__mux2_1
*I *1249:S I *D sky130_fd_sc_hd__mux2_1
*I *1247:Y O *D sky130_fd_sc_hd__nor2_1
*CAP
1 *1248:S 9.81966e-05
2 *1251:S 0.000340655
3 *1253:S 5.76863e-05
4 *1250:S 6.02473e-05
5 *1252:S 0.000263405
6 *1255:S 6.50013e-05
7 *1254:S 0.000309586
8 *1249:S 0.000609086
9 *1247:Y 0.000138754
10 *305:34 0.000993749
11 *305:32 0.000608275
12 *305:28 0.00111295
13 *305:22 0.000890355
14 *305:16 0.000790649
15 *305:12 0.000882644
16 *305:6 0.000494732
17 *1248:S *312:120 0.000475036
18 *1248:S *443:68 2.28598e-05
19 *1249:S *1168:A1 1.76135e-05
20 *1249:S *312:77 0.000124838
21 *1249:S *344:12 0
22 *1249:S *444:137 0.000169111
23 *1249:S *444:141 6.84519e-05
24 *1250:S *1146:A3 1.21258e-05
25 *1251:S *1251:A0 1.98839e-05
26 *1251:S *1296:A0 6.20913e-05
27 *1251:S *341:10 4.46186e-06
28 *1253:S *1253:A0 0.00010096
29 *1254:S *1168:A3 3.19337e-05
30 *1254:S *1172:A2 0.000313241
31 *1254:S *1254:A0 2.89016e-05
32 *1254:S *1300:A0 0
33 *1254:S *310:45 0
34 *1254:S *344:12 5.10822e-05
35 *1254:S *352:10 2.94103e-05
36 *1254:S *444:141 0
37 *1255:S *1294:S 2.59355e-05
38 *1255:S *310:45 4.58194e-05
39 *305:6 *312:120 0.000266479
40 *305:6 *443:68 2.14757e-05
41 *305:12 *1204:A1 0.000219908
42 *305:12 *431:10 0.000108118
43 *305:16 *1253:A0 2.44318e-05
44 *305:16 *1316:A0 9.31209e-05
45 *305:16 *312:26 0.000191722
46 *305:22 *1146:A2 2.19778e-05
47 *305:22 *1191:A0 0.000139907
48 *305:22 *1221:A1 0
49 *305:22 *381:10 0
50 *305:22 *444:298 0.000438781
51 *305:28 *1146:A2 0.000173069
52 *305:28 *1295:A0 0.000118604
53 *305:32 *1219:A1 7.39741e-05
54 *305:32 *1255:A0 3.34366e-05
55 *305:32 *310:39 0.000496258
56 *305:32 *379:8 0.000200399
57 *305:32 *444:141 0.000464265
58 *305:32 *444:246 6.49606e-05
59 *305:32 *444:271 2.16719e-05
60 *305:34 *1255:A0 0.000130583
61 *305:34 *444:141 0.000123668
62 *1164:A3 *305:6 0
63 *1168:S0 *1249:S 4.16114e-05
64 *1168:S0 *305:34 6.92148e-06
65 *1169:A1 *1249:S 5.71472e-05
66 *1187:B *305:6 7.65719e-05
67 *1191:A1 *305:22 2.14658e-05
68 *1205:S *1249:S 8.85652e-05
69 *1206:S *1249:S 8.25843e-06
70 *1247:A *305:6 3.18676e-05
71 *1247:B *305:6 7.43578e-06
72 *1251:A1 *1251:S 5.33005e-05
73 *1253:A1 *305:16 0.000341856
74 *1295:A1 *305:22 4.73656e-05
75 *1295:A1 *305:28 0.00056397
76 *1299:A1 *1254:S 0
77 *1317:A1 *1249:S 0
78 *1385:D *1249:S 0.000148105
79 *1386:CLK *1250:S 0
80 *1387:D *1251:S 0.000124046
81 *1388:D *1252:S 0.000187999
82 *1391:D *1254:S 0.000149059
83 *1426:CLK *305:28 0
84 *1427:D *1251:S 0
85 *1444:D *1252:S 0.000324889
86 *1447:CLK *1249:S 0.000202075
87 *1447:D *1249:S 2.87687e-05
88 *85:139 *305:28 6.5185e-05
89 *90:51 *1251:S 0.000135836
90 *90:51 *305:16 4.0342e-06
91 *90:57 *305:12 5.83304e-05
92 *90:57 *305:16 1.40415e-05
93 *90:66 *305:12 0.000956718
94 *104:104 *1248:S 0.00044468
95 *104:104 *305:6 9.60875e-05
96 *105:48 *1249:S 4.18895e-05
97 *105:58 *1249:S 0.000273269
98 *105:76 *305:32 0.00022117
99 *106:186 *305:22 0.000173804
100 *106:203 *1250:S 2.59355e-05
101 *107:104 *305:22 0.000325596
102 *110:91 *1254:S 0
103 *110:97 *1249:S 0
104 *110:97 *1254:S 0
105 *111:66 *1255:S 1.21258e-05
106 *111:70 *1255:S 4.58194e-05
107 *114:83 *305:34 3.09983e-05
108 *261:14 *305:22 0
109 *261:14 *305:28 0
110 *261:24 *1252:S 1.63504e-05
111 *269:16 *1251:S 0.000141707
112 *269:16 *1253:S 0.000142856
113 *269:16 *305:16 1.20767e-05
114 *269:16 *305:22 0.000137321
115 *273:26 *1252:S 0.000195577
116 *273:26 *305:28 5.80314e-05
117 *285:26 *1252:S 0.000163548
118 *285:26 *305:28 0.00053128
119 *292:33 *305:6 0
120 *296:10 *305:12 0.000198494
121 *296:20 *305:12 0.000164964
122 *296:26 *1252:S 0.000324889
123 *296:62 *1252:S 5.33005e-05
124 *299:32 *305:22 0
*RES
1 *1247:Y *305:6 15.1664 
2 *305:6 *305:12 26.4258 
3 *305:12 *305:16 11.0149 
4 *305:16 *305:22 21.9258 
5 *305:22 *305:28 23.8813 
6 *305:28 *305:32 26.1338 
7 *305:32 *305:34 3.96042 
8 *305:34 *1249:S 37.6863 
9 *305:34 *1254:S 32.9733 
10 *305:32 *1255:S 15.6812 
11 *305:28 *1252:S 32.0872 
12 *305:22 *1250:S 15.1119 
13 *305:16 *1253:S 12.1961 
14 *305:12 *1251:S 30.602 
15 *305:6 *1248:S 16.3297 
*END

*D_NET *306 0.0154688
*CONN
*I *1260:S I *D sky130_fd_sc_hd__mux2_1
*I *1258:S I *D sky130_fd_sc_hd__mux2_1
*I *1264:S I *D sky130_fd_sc_hd__mux2_1
*I *1261:S I *D sky130_fd_sc_hd__mux2_1
*I *1259:S I *D sky130_fd_sc_hd__mux2_1
*I *1257:S I *D sky130_fd_sc_hd__mux2_1
*I *1262:S I *D sky130_fd_sc_hd__mux2_1
*I *1263:S I *D sky130_fd_sc_hd__mux2_1
*I *1256:Y O *D sky130_fd_sc_hd__nor2_1
*CAP
1 *1260:S 0.000270208
2 *1258:S 1.91209e-05
3 *1264:S 0.000274273
4 *1261:S 0
5 *1259:S 3.03165e-05
6 *1257:S 0.000429518
7 *1262:S 0.000400247
8 *1263:S 0.000639512
9 *1256:Y 2.51652e-05
10 *306:112 0.000393641
11 *306:68 0.000617315
12 *306:45 0.00101793
13 *306:37 0.000769654
14 *306:31 0.00102264
15 *306:23 0.000909068
16 *306:6 0.00103052
17 *1257:S *332:8 0
18 *1259:S *1259:A0 5.52238e-05
19 *1260:S *1260:A0 1.41029e-05
20 *1262:S *1230:A0 0.000119135
21 *1262:S *1233:A0 0.000224583
22 *1262:S *1262:A0 4.43256e-05
23 *1262:S *1275:S 2.31704e-05
24 *1262:S *1280:A0 0.000355341
25 *1262:S *1280:S 0.00014285
26 *1262:S *359:12 8.58217e-05
27 *1263:S *1167:S0 0
28 *1263:S *1284:A0 1.55885e-05
29 *1263:S *1284:S 0.000136951
30 *1264:S *1264:A0 2.89016e-05
31 *306:23 *442:134 3.78722e-05
32 *306:23 *442:145 0.000826947
33 *306:31 *355:10 0.000139907
34 *306:37 *1276:S 0
35 *306:45 *1155:S0 0.000215754
36 *306:45 *1160:S0 9.98942e-05
37 *306:45 *1230:A0 0.000324889
38 *306:45 *1261:A0 4.88631e-05
39 *306:45 *1276:S 0
40 *306:45 *356:10 0.000202842
41 *306:45 *444:328 0
42 *306:45 *444:336 0.000229006
43 *306:45 *444:342 0.000348075
44 *306:68 *1259:A0 3.98559e-05
45 *1178:S *1257:S 0.000202898
46 *1181:A1 *1264:S 0
47 *1183:S *1263:S 0
48 *1227:A *306:23 6.13706e-05
49 *1230:A1 *1259:S 0
50 *1230:A1 *1262:S 1.21258e-05
51 *1230:A1 *306:68 5.38242e-05
52 *1230:S *1262:S 3.00893e-05
53 *1256:B *1263:S 1.00733e-05
54 *1256:B *306:6 1.24368e-05
55 *1259:A1 *306:68 9.41642e-05
56 *1260:A1 *1260:S 1.02504e-05
57 *1284:A1 *1263:S 4.59075e-05
58 *1331:D *306:23 0.000153769
59 *1369:CLK *306:31 0.000103247
60 *1369:CLK *306:37 5.52238e-05
61 *1369:D *1264:S 4.46186e-06
62 *1369:D *306:31 1.76204e-05
63 *1393:D *306:31 1.72894e-05
64 *1394:D *306:68 9.41642e-05
65 *1396:D *306:45 3.67142e-05
66 *1397:D *1262:S 2.89016e-05
67 *1408:D *1257:S 3.63866e-05
68 *79:43 *306:68 2.47753e-05
69 *79:49 *1262:S 0
70 *79:137 *1257:S 2.47833e-05
71 *79:150 *1257:S 0.000113158
72 *92:8 *306:31 0
73 *104:133 *1263:S 0
74 *104:133 *306:6 0
75 *104:135 *1263:S 0
76 *104:157 *1264:S 0
77 *107:148 *306:23 8.58301e-05
78 *108:194 *1260:S 0
79 *108:194 *306:31 0
80 *108:194 *306:37 3.13884e-05
81 *108:194 *306:112 0
82 *108:211 *306:37 0.000298881
83 *108:211 *306:45 5.52302e-05
84 *108:223 *306:45 0
85 *109:34 *1257:S 0.000202117
86 *109:44 *1257:S 3.61629e-06
87 *261:12 *1260:S 0
88 *261:12 *306:23 5.29667e-05
89 *261:14 *1260:S 0
90 *261:14 *306:23 0.00132157
91 *265:8 *1264:S 0
92 *290:8 *1263:S 0.000297713
93 *290:8 *306:6 1.58163e-05
94 *290:32 *1264:S 0
95 *290:42 *306:37 0
96 *301:14 *306:23 0.000153769
97 *301:91 *1262:S 5.01876e-06
98 *301:97 *1262:S 9.21929e-05
*RES
1 *1256:Y *306:6 10.0426 
2 *306:6 *1263:S 28.8793 
3 *306:6 *306:23 34.4209 
4 *306:23 *306:31 11.7822 
5 *306:31 *306:37 9.90104 
6 *306:37 *306:45 29.8912 
7 *306:45 *1262:S 35.305 
8 *306:45 *306:68 5.29706 
9 *306:68 *1257:S 26.4536 
10 *306:68 *1259:S 10.6366 
11 *306:37 *1261:S 9.3 
12 *306:31 *1264:S 25.107 
13 *306:23 *306:112 2.64853 
14 *306:112 *1258:S 9.89406 
15 *306:112 *1260:S 25.4287 
*END

*D_NET *307 0.0209352
*CONN
*I *1266:S I *D sky130_fd_sc_hd__mux2_1
*I *1269:S I *D sky130_fd_sc_hd__mux2_1
*I *1270:S I *D sky130_fd_sc_hd__mux2_1
*I *1271:S I *D sky130_fd_sc_hd__mux2_1
*I *1268:S I *D sky130_fd_sc_hd__mux2_1
*I *1267:S I *D sky130_fd_sc_hd__mux2_1
*I *1273:S I *D sky130_fd_sc_hd__mux2_1
*I *1272:S I *D sky130_fd_sc_hd__mux2_1
*I *1265:Y O *D sky130_fd_sc_hd__nor2_1
*CAP
1 *1266:S 0.00106264
2 *1269:S 0
3 *1270:S 0.00025652
4 *1271:S 2.23854e-05
5 *1268:S 5.72248e-05
6 *1267:S 0.000948682
7 *1273:S 2.22357e-05
8 *1272:S 0.000161395
9 *1265:Y 0.000545954
10 *307:113 0.000303497
11 *307:109 0.00163539
12 *307:100 0.000831682
13 *307:63 0.00160006
14 *307:40 0.000957794
15 *307:34 0.00111422
16 *307:22 0.00130122
17 *307:20 0.000673915
18 *1266:S *1266:A0 0
19 *1266:S *444:34 4.32258e-05
20 *1267:S *1143:A0 0
21 *1267:S *1267:A0 5.71472e-05
22 *1268:S *1268:A0 5.33433e-05
23 *1270:S *397:12 0.000275087
24 *1270:S *444:59 0.000448644
25 *1270:S *444:61 0.00074494
26 *1272:S *1215:A1 6.78055e-06
27 *307:20 *1248:A0 0.000183713
28 *307:20 *1325:S 0.000163444
29 *307:20 *313:10 0.00011931
30 *307:20 *443:68 0.00042526
31 *307:22 *1296:S 7.43578e-06
32 *307:22 *1314:A0 2.51343e-06
33 *307:34 *1136:S1 0.00034489
34 *307:34 *1268:A0 6.05161e-06
35 *307:34 *437:10 0.000104086
36 *307:34 *444:520 0
37 *307:63 *1215:A1 1.32724e-05
38 *307:63 *320:10 0.000123673
39 *307:100 *1271:A0 7.77652e-05
40 *307:100 *1314:A0 2.90184e-05
41 *307:100 *1314:S 2.89016e-05
42 *307:100 *445:116 0
43 *307:109 *1243:A1 3.47797e-05
44 *307:109 *1271:A0 8.40933e-05
45 *307:109 *407:8 3.22964e-05
46 *1092:A0 *1266:S 0
47 *1092:A1 *1266:S 0.000127368
48 *1092:S *1266:S 3.69047e-06
49 *1094:A0 *1267:S 0
50 *1094:A0 *1273:S 0
51 *1099:CLK *1266:S 7.07676e-05
52 *1104:D *1266:S 1.92905e-05
53 *1144:A0 *1267:S 0.000358915
54 *1144:A0 *1273:S 2.89016e-05
55 *1144:A0 *307:63 0
56 *1144:A2 *1272:S 0
57 *1144:A3 *307:40 0
58 *1153:S0 *307:34 0
59 *1164:A1 *307:20 0
60 *1173:S0 *307:63 7.92975e-05
61 *1200:S *307:34 2.8266e-06
62 *1200:S *307:40 0
63 *1202:S *307:100 9.00795e-06
64 *1202:S *307:109 3.06878e-06
65 *1203:S *307:34 7.67903e-05
66 *1209:A0 *1266:S 0
67 *1209:S *1266:S 0
68 *1210:S *1267:S 3.06406e-05
69 *1215:S *307:63 3.30781e-05
70 *1243:A0 *307:109 2.42516e-05
71 *1267:A1 *1267:S 2.89016e-05
72 *1268:A1 *307:34 0
73 *1269:A1 *307:109 5.52302e-05
74 *1319:A_N *307:20 2.44318e-05
75 *1319:B *307:20 3.68685e-05
76 *1353:D *1267:S 0.000108111
77 *1358:CLK *1272:S 0.000182694
78 *1358:D *1272:S 0.000103193
79 *1381:CLK *307:109 0
80 *1381:D *307:109 0.00010096
81 *1384:D *307:20 8.32171e-05
82 *1402:CLK *307:34 0.00037467
83 *1402:D *307:34 0.000109826
84 *1403:D *307:109 1.40306e-05
85 *1440:CLK *307:20 1.85808e-05
86 *1440:D *307:20 0
87 *1450:D *307:34 5.54506e-05
88 *1452:D *307:63 0.000255563
89 *1541:CLK *1266:S 5.52302e-05
90 *68:20 *307:20 0
91 *70:75 *1267:S 0.000354627
92 *89:83 *307:63 0
93 *90:10 *307:34 0.000196021
94 *95:10 *1267:S 6.79057e-05
95 *95:10 *307:63 0.00013518
96 *97:12 *1266:S 0
97 *97:12 *307:109 0
98 *104:24 *1266:S 2.59355e-05
99 *104:30 *1266:S 6.05161e-06
100 *104:94 *307:20 7.80714e-06
101 *105:16 *1266:S 0
102 *105:24 *1267:S 7.85979e-05
103 *107:62 *307:100 8.27184e-06
104 *107:72 *307:22 6.4216e-05
105 *108:10 *1270:S 0.000346115
106 *108:16 *1270:S 0.000313167
107 *108:40 *307:34 0
108 *109:117 *307:109 6.62783e-05
109 *109:131 *307:100 0.000107988
110 *109:139 *307:20 0.000126439
111 *110:16 *307:20 0
112 *110:16 *307:34 0.000148345
113 *261:24 *1268:S 0
114 *261:24 *1272:S 0.000184032
115 *261:24 *307:34 0
116 *261:24 *307:63 0.000137874
117 *268:22 *307:34 0.000369669
118 *292:33 *307:20 5.52302e-05
119 *296:10 *307:20 5.99125e-05
120 *296:114 *307:22 0.000127267
121 *296:114 *307:100 0.000186128
122 *298:38 *307:109 0.000221641
123 *298:72 *1266:S 8.79327e-05
124 *298:72 *307:109 0
125 *303:26 *307:109 7.32272e-05
*RES
1 *1265:Y *307:20 47.3249 
2 *307:20 *307:22 4.72775 
3 *307:22 *307:34 44.2477 
4 *307:34 *307:40 12.9604 
5 *307:40 *1272:S 16.503 
6 *307:40 *307:63 29.5694 
7 *307:63 *1273:S 10.0426 
8 *307:63 *1267:S 49.5625 
9 *307:34 *1268:S 11.2059 
10 *307:22 *307:100 10.6189 
11 *307:100 *1271:S 9.89406 
12 *307:100 *307:109 16.1139 
13 *307:109 *307:113 1.33664 
14 *307:113 *1270:S 38.6714 
15 *307:113 *1269:S 9.3 
16 *307:109 *1266:S 46.8397 
*END

*D_NET *308 0.0151806
*CONN
*I *1278:S I *D sky130_fd_sc_hd__mux2_1
*I *1282:S I *D sky130_fd_sc_hd__mux2_1
*I *1276:S I *D sky130_fd_sc_hd__mux2_1
*I *1275:S I *D sky130_fd_sc_hd__mux2_1
*I *1280:S I *D sky130_fd_sc_hd__mux2_1
*I *1277:S I *D sky130_fd_sc_hd__mux2_1
*I *1279:S I *D sky130_fd_sc_hd__mux2_1
*I *1281:S I *D sky130_fd_sc_hd__mux2_1
*I *1274:Y O *D sky130_fd_sc_hd__nor2_1
*CAP
1 *1278:S 0.000145158
2 *1282:S 2.23854e-05
3 *1276:S 0.000567069
4 *1275:S 0.000429459
5 *1280:S 0.000252279
6 *1277:S 0
7 *1279:S 0.000100755
8 *1281:S 0.000341472
9 *1274:Y 0.000138356
10 *308:63 0.000737534
11 *308:54 0.00028249
12 *308:46 0.00124829
13 *308:31 0.000714895
14 *308:16 0.000845815
15 *308:12 0.00109915
16 *308:8 0.00101555
17 *1275:S *1135:S1 0.00029032
18 *1275:S *1160:S1 9.92409e-05
19 *1275:S *1230:A0 4.02462e-05
20 *1275:S *1275:A0 0.00010096
21 *1275:S *1280:A0 5.20904e-05
22 *1275:S *444:342 0
23 *1276:S *1276:A0 4.45768e-06
24 *1276:S *324:10 0.000125057
25 *1276:S *356:10 7.3237e-05
26 *1278:S *1152:A0 1.76039e-05
27 *1278:S *1180:A0 5.54602e-05
28 *1279:S *1279:A0 1.56e-05
29 *1280:S *1230:A0 5.76009e-05
30 *1280:S *1280:A0 9.74552e-05
31 *1281:S *1167:A2 0
32 *1281:S *1234:A0 0
33 *1281:S *1281:A0 1.35046e-05
34 *1281:S *360:8 0
35 *308:8 *1180:A0 2.94103e-05
36 *308:8 *493:63 0
37 *308:12 *1170:A3 0
38 *308:12 *1170:S0 0
39 *308:12 *1180:A0 0.000113073
40 *308:12 *444:314 0
41 *308:12 *444:328 0
42 *308:16 *1170:A3 0
43 *308:16 *1282:A0 2.59355e-05
44 *308:46 *1232:A0 0.00035392
45 *308:46 *356:10 5.33334e-05
46 *308:46 *444:336 0
47 *308:54 *1230:A0 8.89481e-05
48 *308:54 *1277:A0 3.20153e-05
49 *308:54 *356:10 1.41029e-05
50 *308:54 *444:336 0.000214134
51 *308:63 *1230:A0 7.40153e-05
52 *1180:S *308:12 5.52302e-05
53 *1184:S *308:12 0.000310286
54 *1229:S *1276:S 0.000102679
55 *1229:S *308:46 6.54721e-05
56 *1230:A1 *1275:S 0
57 *1231:A1 *308:12 2.72887e-05
58 *1234:S *1281:S 0
59 *1234:S *308:16 3.32631e-05
60 *1235:A1 *308:16 0
61 *1262:S *1275:S 2.31704e-05
62 *1262:S *1280:S 0.00014285
63 *1275:A1 *1275:S 0.000144773
64 *1276:A1 *1276:S 2.89114e-05
65 *1278:A1 *1278:S 0.000102207
66 *1278:A1 *308:12 0
67 *1279:A1 *1279:S 5.52238e-05
68 *1279:A1 *308:46 0.00024406
69 *1281:A1 *1281:S 0
70 *1330:D *1276:S 0.000161868
71 *1331:CLK *1278:S 1.74352e-05
72 *1331:D *308:12 9.60875e-05
73 *1334:CLK *1281:S 4.01768e-05
74 *1334:D *1281:S 7.01199e-06
75 *1370:D *308:46 9.25014e-06
76 *1398:CLK *1281:S 6.26466e-05
77 *1408:D *1275:S 5.33334e-05
78 *1412:D *308:46 4.23086e-05
79 *1415:CLK *308:16 0
80 *1415:D *308:16 5.71472e-05
81 *79:49 *1280:S 0
82 *79:137 *1275:S 0
83 *92:32 *308:31 8.22029e-05
84 *92:32 *308:46 2.59795e-05
85 *92:34 *1281:S 2.19778e-05
86 *92:34 *308:31 0.000135113
87 *92:61 *1279:S 0
88 *92:76 *1279:S 0
89 *106:36 *1276:S 4.15874e-05
90 *106:57 *1276:S 3.34295e-05
91 *107:165 *308:12 9.52945e-05
92 *108:194 *1276:S 0.000188345
93 *108:223 *1276:S 8.50152e-05
94 *108:223 *308:46 0
95 *109:44 *1275:S 2.22896e-05
96 *110:216 *308:8 0
97 *111:191 *1278:S 5.70551e-05
98 *111:197 *1278:S 0
99 *111:197 *308:12 0.000118259
100 *212:14 *308:12 9.85396e-06
101 *277:10 *1276:S 0.000176234
102 *285:8 *308:12 2.72859e-05
103 *290:42 *1276:S 4.19671e-05
104 *301:14 *308:12 0.000135028
105 *301:20 *308:12 0.000700369
106 *301:20 *308:16 0.000285792
107 *301:37 *1281:S 4.35131e-05
108 *301:37 *308:31 8.81278e-05
109 *301:62 *1279:S 0
110 *301:62 *308:31 0.000183933
111 *301:62 *308:46 0.00065703
112 *301:70 *308:46 5.98882e-05
113 *301:70 *308:54 0
114 *301:91 *1275:S 0
115 *301:91 *308:54 0
116 *301:91 *308:63 0
117 *306:37 *1276:S 0
118 *306:45 *1276:S 0
*RES
1 *1274:Y *308:8 16.9188 
2 *308:8 *308:12 30.8615 
3 *308:12 *308:16 16.0595 
4 *308:16 *1281:S 24.3199 
5 *308:16 *308:31 9.43074 
6 *308:31 *1279:S 16.2505 
7 *308:31 *308:46 26.2328 
8 *308:46 *308:54 12.7426 
9 *308:54 *1277:S 13.8 
10 *308:54 *308:63 2.27724 
11 *308:63 *1280:S 21.9931 
12 *308:63 *1275:S 29.7654 
13 *308:46 *1276:S 39.4387 
14 *308:12 *1282:S 9.89406 
15 *308:8 *1278:S 19.6911 
*END

*D_NET *309 0.0155327
*CONN
*I *1284:S I *D sky130_fd_sc_hd__mux2_1
*I *1287:S I *D sky130_fd_sc_hd__mux2_1
*I *1285:S I *D sky130_fd_sc_hd__mux2_1
*I *1286:S I *D sky130_fd_sc_hd__mux2_1
*I *1288:S I *D sky130_fd_sc_hd__mux2_1
*I *1290:S I *D sky130_fd_sc_hd__mux2_1
*I *1291:S I *D sky130_fd_sc_hd__mux2_1
*I *1289:S I *D sky130_fd_sc_hd__mux2_1
*I *1283:Y O *D sky130_fd_sc_hd__nor3b_1
*CAP
1 *1284:S 0.000170811
2 *1287:S 0
3 *1285:S 0.000548315
4 *1286:S 0
5 *1288:S 5.45509e-05
6 *1290:S 0
7 *1291:S 0.000181977
8 *1289:S 0
9 *1283:Y 0.000262821
10 *309:101 0.000709727
11 *309:61 0.000588679
12 *309:47 0.00125222
13 *309:37 0.00137758
14 *309:24 0.00115031
15 *309:10 0.00123924
16 *309:8 0.000947761
17 *1284:S *1218:A1 0
18 *1284:S *442:98 0
19 *1284:S *442:122 0
20 *1285:S *1285:A0 3.34366e-05
21 *1285:S *1287:A0 1.41706e-05
22 *1288:S *1288:A0 2.44318e-05
23 *1291:S *1290:A0 0.000129336
24 *1291:S *417:10 0
25 *309:8 *1137:A1 0
26 *309:8 *1137:S0 4.00276e-06
27 *309:8 *1137:S1 0
28 *309:8 *1167:S0 0.000125882
29 *309:8 *1218:A1 5.03772e-05
30 *309:8 *442:84 3.06878e-06
31 *309:10 *1150:A1 3.17148e-05
32 *309:10 *1221:A1 0
33 *309:10 *386:10 0
34 *309:10 *389:16 0.000179215
35 *309:24 *1150:A1 5.39629e-06
36 *309:24 *1150:A2 2.89114e-05
37 *309:24 *1305:A0 1.88573e-05
38 *309:24 *389:16 9.30603e-06
39 *309:24 *413:6 5.03772e-05
40 *309:24 *444:298 8.36572e-05
41 *309:24 *444:304 9.90367e-05
42 *309:47 *1192:A0 0
43 *309:47 *1286:A0 3.20153e-05
44 *309:61 *1171:A2 9.25014e-06
45 *309:61 *1290:A0 0
46 *309:61 *1309:A0 0
47 *309:61 *425:8 0.000101666
48 *309:101 *1150:A1 0.000128875
49 *309:101 *389:16 7.17189e-05
50 *1117:A *1285:S 0
51 *1126:A *309:10 4.5539e-05
52 *1149:A3 *309:101 0.000122101
53 *1150:S0 *1285:S 0
54 *1150:S0 *309:24 0.000177059
55 *1188:S *1284:S 2.48938e-05
56 *1188:S *309:10 0.000424464
57 *1190:A1 *309:24 0
58 *1195:A1 *1291:S 6.21279e-05
59 *1195:S *1288:S 9.60939e-05
60 *1195:S *1291:S 0.000157191
61 *1195:S *309:47 0.000218175
62 *1195:S *309:61 0
63 *1218:S *1284:S 0
64 *1218:S *309:10 0
65 *1219:S *1285:S 1.50524e-05
66 *1263:S *1284:S 0.000136951
67 *1284:A1 *1284:S 9.60875e-05
68 *1285:A1 *1285:S 5.71472e-05
69 *1288:A1 *1288:S 1.39841e-05
70 *1290:A1 *1291:S 7.48744e-05
71 *1290:A1 *309:61 0.000193476
72 *1306:A1 *309:61 0.000109826
73 *1340:D *309:47 0.000159613
74 *1360:D *309:8 5.49489e-05
75 *1360:D *309:10 0.000126054
76 *1362:CLK *309:47 0
77 *1419:CLK *309:24 0.000188586
78 *1419:CLK *309:37 0.000369781
79 *1419:D *309:24 0.000436887
80 *1420:D *309:47 6.58252e-05
81 *1421:D *309:37 0
82 *1422:D *1291:S 0.000129714
83 *1423:CLK *1291:S 0
84 *1435:CLK *309:24 0
85 *1435:D *309:24 9.35589e-06
86 *68:100 *1285:S 0
87 *78:10 *1288:S 5.52302e-05
88 *78:29 *309:47 0
89 *78:31 *309:47 0
90 *78:33 *309:47 0
91 *78:37 *1291:S 0
92 *78:58 *1291:S 0.000177941
93 *86:52 *309:37 0
94 *86:54 *309:37 0
95 *86:56 *309:37 0
96 *86:56 *309:47 0
97 *86:58 *309:47 0
98 *104:133 *309:8 4.30382e-05
99 *104:146 *1284:S 0.000131297
100 *104:157 *1284:S 3.17148e-05
101 *107:104 *309:101 0.000225616
102 *108:74 *309:47 0
103 *108:74 *309:61 7.29667e-05
104 *164:16 *309:24 0
105 *259:16 *309:8 3.72932e-05
106 *273:26 *1285:S 0
107 *277:30 *309:10 8.39096e-05
108 *285:12 *1284:S 3.13225e-05
109 *285:12 *309:10 0.000412594
110 *285:26 *1285:S 0.000513342
111 *285:26 *309:101 7.08001e-05
112 *293:32 *309:37 0
113 *293:38 *309:37 0
114 *293:38 *309:47 0
115 *293:59 *1288:S 8.46829e-05
116 *299:12 *309:8 0
117 *299:14 *309:10 0
118 *299:20 *309:10 0
119 *299:32 *309:10 0.000205616
120 *299:32 *309:101 7.08001e-05
121 *299:43 *1285:S 0
122 *299:45 *1285:S 0
*RES
1 *1283:Y *309:8 21.9436 
2 *309:8 *309:10 24.1585 
3 *309:10 *309:24 23.312 
4 *309:24 *1289:S 9.3 
5 *309:24 *309:37 21.7031 
6 *309:37 *309:47 28.2377 
7 *309:47 *309:61 23.2327 
8 *309:61 *1291:S 27.2604 
9 *309:61 *1290:S 9.3 
10 *309:47 *1288:S 11.7505 
11 *309:37 *1286:S 13.8 
12 *309:10 *309:101 13.1634 
13 *309:101 *1285:S 37.607 
14 *309:101 *1287:S 9.3 
15 *309:8 *1284:S 20.0624 
*END

*D_NET *310 0.0171298
*CONN
*I *1293:S I *D sky130_fd_sc_hd__mux2_1
*I *1296:S I *D sky130_fd_sc_hd__mux2_1
*I *1298:S I *D sky130_fd_sc_hd__mux2_1
*I *1297:S I *D sky130_fd_sc_hd__mux2_1
*I *1294:S I *D sky130_fd_sc_hd__mux2_1
*I *1300:S I *D sky130_fd_sc_hd__mux2_1
*I *1299:S I *D sky130_fd_sc_hd__mux2_1
*I *1295:S I *D sky130_fd_sc_hd__mux2_1
*I *1292:Y O *D sky130_fd_sc_hd__nor3_1
*CAP
1 *1293:S 0.000117717
2 *1296:S 0.000596673
3 *1298:S 0.000230769
4 *1297:S 0
5 *1294:S 0.000778602
6 *1300:S 0
7 *1299:S 0.000416889
8 *1295:S 0.00033733
9 *1292:Y 0
10 *310:101 0.000827441
11 *310:45 0.000623766
12 *310:39 0.00158319
13 *310:24 0.0010521
14 *310:18 0.000851581
15 *310:12 0.00112392
16 *310:4 0.000507113
17 *1293:S *1175:A_N 6.72205e-05
18 *1293:S *1236:B 0.000170379
19 *1293:S *1293:A0 7.49387e-06
20 *1293:S *490:46 4.38128e-05
21 *1294:S *1172:A3 0
22 *1294:S *1255:A0 6.4443e-05
23 *1294:S *1326:A1 2.88018e-06
24 *1294:S *1326:S 0.000170508
25 *1294:S *444:127 0.000581693
26 *1295:S *1146:A2 6.62868e-05
27 *1296:S *1162:A0 7.43578e-06
28 *1296:S *1162:A1 0
29 *1296:S *1162:S1 0
30 *1296:S *1296:A0 5.33334e-05
31 *1296:S *439:10 9.41642e-05
32 *1296:S *445:116 0
33 *1298:S *1162:S1 0
34 *1299:S *1172:A2 0
35 *310:12 *1164:S0 1.69115e-05
36 *310:12 *1298:A0 0
37 *310:12 *312:10 0
38 *310:12 *312:16 0
39 *310:12 *443:80 5.46387e-05
40 *310:18 *1162:S1 0
41 *310:18 *1253:A0 0.000343947
42 *310:18 *1297:A0 3.34295e-05
43 *310:18 *1298:A0 0.00010348
44 *310:18 *312:26 0.000102269
45 *310:18 *312:32 0.00016676
46 *310:18 *443:80 0
47 *310:18 *443:88 0
48 *310:18 *444:271 0
49 *310:24 *1297:A0 0.00013059
50 *310:24 *444:271 0
51 *310:39 *1219:A1 8.32242e-05
52 *310:39 *1255:A0 8.08022e-05
53 *310:39 *379:8 0.000197969
54 *310:39 *444:271 0
55 *310:45 *1172:A2 0
56 *310:45 *1255:A0 1.92905e-05
57 *1146:S0 *310:18 0.000186707
58 *1146:S0 *310:39 0
59 *1164:A1 *1296:S 4.58096e-05
60 *1174:A1 *1294:S 1.40415e-05
61 *1200:S *1294:S 0
62 *1247:A *310:12 4.38511e-05
63 *1247:B *310:12 9.74684e-05
64 *1254:S *310:45 0
65 *1255:S *1294:S 2.59355e-05
66 *1255:S *310:45 4.58194e-05
67 *1293:A1 *1293:S 6.90451e-05
68 *1294:A1 *1294:S 5.52238e-05
69 *1298:A1 *1298:S 6.07453e-05
70 *1299:A1 *1299:S 0.00027511
71 *1310:A *310:12 0.000128154
72 *1346:D *310:18 1.46624e-05
73 *1351:CLK *1294:S 8.50774e-05
74 *1351:D *1294:S 4.65751e-05
75 *1385:CLK *1294:S 1.57931e-05
76 *1390:D *1299:S 0
77 *1391:CLK *1299:S 0
78 *1391:D *310:45 0
79 *1425:D *1294:S 6.23481e-05
80 *1426:CLK *1295:S 1.92905e-05
81 *1427:D *1296:S 1.92905e-05
82 *1428:CLK *1295:S 6.97494e-05
83 *1428:D *1295:S 8.01182e-05
84 *1428:D *310:24 0
85 *1428:D *310:39 2.97756e-05
86 *1430:D *1299:S 0.000186662
87 *1431:D *1299:S 1.08359e-05
88 *1433:D *310:39 0.000108111
89 *1445:D *1296:S 1.58163e-05
90 *1445:D *1298:S 6.40103e-05
91 *1445:D *310:12 8.15095e-05
92 *1445:D *310:18 0.00011769
93 *1454:D *1294:S 5.52302e-05
94 *85:41 *1299:S 0.000182799
95 *87:15 *1298:S 0
96 *87:43 *310:18 0
97 *87:88 *310:12 0
98 *104:118 *1293:S 0.000266479
99 *104:118 *310:12 0.000106542
100 *107:80 *1296:S 1.39841e-05
101 *107:96 *1296:S 0
102 *108:58 *310:24 1.40306e-05
103 *108:68 *1295:S 9.33978e-07
104 *108:68 *310:24 9.01258e-06
105 *109:139 *1296:S 2.05612e-05
106 *109:143 *1296:S 8.40933e-05
107 *109:171 *1296:S 6.20492e-05
108 *109:190 *310:12 4.89268e-05
109 *110:91 *1299:S 0.000363712
110 *110:97 *1299:S 3.17148e-05
111 *111:66 *1294:S 1.3277e-05
112 *111:70 *1299:S 3.53302e-05
113 *111:70 *310:45 0.000181404
114 *111:76 *1299:S 0.000136958
115 *114:60 *1294:S 0
116 *114:74 *1294:S 0
117 *114:83 *310:39 0.000686886
118 *114:161 *310:39 0.000144512
119 *114:173 *310:39 0
120 *259:16 *1293:S 2.15245e-05
121 *273:26 *1295:S 6.59557e-05
122 *273:26 *310:24 3.80385e-05
123 *274:18 *1295:S 3.42144e-05
124 *296:20 *1296:S 0.000133005
125 *296:97 *1296:S 5.33005e-05
126 *296:114 *1296:S 3.63889e-05
127 *305:32 *310:39 0.000496258
128 *307:22 *1296:S 7.43578e-06
*RES
1 *1292:Y *310:4 9.3 
2 *310:4 *310:12 19.0545 
3 *310:12 *310:18 27.1784 
4 *310:18 *310:24 8.65844 
5 *310:24 *1295:S 19.5971 
6 *310:24 *310:39 34.8417 
7 *310:39 *310:45 7.05449 
8 *310:45 *1299:S 35.2803 
9 *310:45 *1300:S 9.3 
10 *310:39 *1294:S 43.9684 
11 *310:18 *1297:S 13.8 
12 *310:12 *310:101 4.5 
13 *310:101 *1298:S 15.9584 
14 *310:101 *1296:S 35.7258 
15 *310:4 *1293:S 15.2159 
*END

*D_NET *311 0.0172662
*CONN
*I *1302:S I *D sky130_fd_sc_hd__mux2_1
*I *1305:S I *D sky130_fd_sc_hd__mux2_1
*I *1304:S I *D sky130_fd_sc_hd__mux2_1
*I *1303:S I *D sky130_fd_sc_hd__mux2_1
*I *1308:S I *D sky130_fd_sc_hd__mux2_1
*I *1306:S I *D sky130_fd_sc_hd__mux2_1
*I *1309:S I *D sky130_fd_sc_hd__mux2_1
*I *1307:S I *D sky130_fd_sc_hd__mux2_1
*I *1301:Y O *D sky130_fd_sc_hd__nor4b_1
*CAP
1 *1302:S 0
2 *1305:S 3.62004e-05
3 *1304:S 5.77389e-05
4 *1303:S 0.000155279
5 *1308:S 0.000152738
6 *1306:S 0
7 *1309:S 8.95868e-05
8 *1307:S 0
9 *1301:Y 6.53377e-05
10 *311:73 0.000927544
11 *311:56 0.000692609
12 *311:47 0.000491173
13 *311:43 0.000445425
14 *311:34 0.00061194
15 *311:18 0.000744722
16 *311:16 0.000717717
17 *311:14 0.00119391
18 *311:10 0.000651327
19 *1303:S *1303:A0 0.000435832
20 *1304:S *1147:A0 0
21 *1305:S *1305:A0 5.7661e-06
22 *1308:S *1308:A0 5.7836e-06
23 *1308:S *444:141 0.000422035
24 *311:10 *1175:A_N 5.52302e-05
25 *311:14 *1162:S1 6.11101e-05
26 *311:14 *444:282 0.000205979
27 *311:16 *1150:A1 4.70078e-05
28 *311:16 *1305:A0 0.000269354
29 *311:16 *381:10 1.77088e-05
30 *311:16 *444:298 0
31 *311:18 *1305:A0 3.4879e-05
32 *311:34 *1147:A3 8.15095e-05
33 *311:34 *1190:A0 3.30352e-05
34 *311:34 *420:8 1.58163e-05
35 *311:34 *444:216 0.00071348
36 *311:43 *1147:A3 0
37 *311:47 *1147:A1 4.20435e-05
38 *311:47 *1147:A3 0
39 *311:47 *444:216 0
40 *311:56 *1306:A0 2.95641e-05
41 *311:73 *1141:A2 0.000392392
42 *311:73 *1141:A3 0.00018372
43 *311:73 *1285:A0 0.000185643
44 *311:73 *1303:A0 9.60875e-05
45 *311:73 *1306:A0 8.07313e-05
46 *311:73 *444:147 0.00012109
47 *311:73 *444:168 8.03013e-05
48 *1141:S0 *1303:S 0.000213492
49 *1144:A2 *1303:S 4.58976e-05
50 *1189:A1 *1308:S 0
51 *1190:A1 *311:18 9.41642e-05
52 *1190:A1 *311:34 0.000230475
53 *1190:S *311:34 9.22103e-06
54 *1191:S *311:14 0.000338485
55 *1286:A1 *1304:S 4.58194e-05
56 *1286:A1 *311:34 0
57 *1289:A1 *311:34 0.00045178
58 *1305:A1 *311:16 0.000125864
59 *1305:A1 *311:18 1.40415e-05
60 *1306:A1 *1309:S 0.000122081
61 *1306:A1 *311:56 4.87953e-05
62 *1307:A1 *311:34 0
63 *1308:A1 *1308:S 5.80706e-06
64 *1342:CLK *1309:S 0
65 *1342:D *1309:S 0
66 *1342:D *311:56 0
67 *1342:D *311:73 0
68 *1361:D *1308:S 0.000248486
69 *1363:CLK *311:18 7.49387e-06
70 *1389:D *311:14 0.000299512
71 *1417:CLK *311:73 0.000178154
72 *1417:D *311:73 0.000184031
73 *1424:CLK *311:10 6.74911e-05
74 *1424:CLK *311:14 9.12446e-05
75 *1434:D *311:34 0
76 *1437:D *311:34 0
77 *86:31 *311:34 0.000142844
78 *86:109 *311:34 0
79 *87:19 *311:14 1.08359e-05
80 *87:79 *311:14 0.000122717
81 *87:88 *311:14 0.00021788
82 *104:118 *311:14 2.34204e-05
83 *104:133 *311:10 4.29179e-05
84 *104:133 *311:14 2.8266e-06
85 *105:58 *1303:S 2.89016e-05
86 *105:66 *1303:S 0
87 *106:186 *311:16 3.94624e-05
88 *107:104 *311:16 0.000217552
89 *114:99 *311:73 0
90 *114:112 *1309:S 0
91 *114:124 *311:47 0.000612942
92 *114:133 *311:47 0.000601143
93 *114:173 *1303:S 0.000184745
94 *259:16 *311:10 1.92905e-05
95 *261:14 *311:14 0
96 *267:28 *1304:S 0
97 *283:8 *311:34 0
98 *283:8 *311:43 0.000131297
99 *283:8 *311:47 0.00139571
100 *293:32 *311:34 0
101 *293:59 *311:73 0
*RES
1 *1301:Y *311:10 16.8198 
2 *311:10 *311:14 29.5001 
3 *311:14 *311:16 21.2377 
4 *311:16 *311:18 3.01982 
5 *311:18 *311:34 43.2477 
6 *311:34 *1307:S 9.3 
7 *311:18 *311:43 6.77724 
8 *311:43 *311:47 28.6585 
9 *311:47 *1309:S 12.3198 
10 *311:47 *311:56 2.45051 
11 *311:56 *1306:S 9.3 
12 *311:56 *311:73 23.9358 
13 *311:73 *1308:S 25.6268 
14 *311:73 *1303:S 16.899 
15 *311:43 *1304:S 15.6812 
16 *311:16 *1305:S 10.3149 
17 *311:10 *1302:S 13.8 
*END

*D_NET *312 0.0184603
*CONN
*I *1311:S I *D sky130_fd_sc_hd__mux2_1
*I *1314:S I *D sky130_fd_sc_hd__mux2_1
*I *1316:S I *D sky130_fd_sc_hd__mux2_1
*I *1313:S I *D sky130_fd_sc_hd__mux2_1
*I *1315:S I *D sky130_fd_sc_hd__mux2_1
*I *1318:S I *D sky130_fd_sc_hd__mux2_1
*I *1312:S I *D sky130_fd_sc_hd__mux2_1
*I *1317:S I *D sky130_fd_sc_hd__mux2_1
*I *1310:Y O *D sky130_fd_sc_hd__nor2_1
*CAP
1 *1311:S 4.7687e-05
2 *1314:S 0.000239559
3 *1316:S 0
4 *1313:S 0
5 *1315:S 0.000170458
6 *1318:S 0
7 *1312:S 0
8 *1317:S 0.000184635
9 *1310:Y 0.000125577
10 *312:120 0.000800432
11 *312:77 0.000898377
12 *312:46 0.00131613
13 *312:42 0.000869342
14 *312:32 0.00110136
15 *312:26 0.000629422
16 *312:16 0.000759835
17 *312:10 0.00106385
18 *1311:S *1325:A1 1.98839e-05
19 *1314:S *1136:S1 0.000135921
20 *1314:S *1314:A0 2.89016e-05
21 *1315:S *443:88 2.72695e-05
22 *1317:S *1168:A0 0
23 *1317:S *1206:A1 2.84398e-05
24 *312:10 *443:68 2.88424e-05
25 *312:16 *1164:S0 7.17603e-05
26 *312:16 *1316:A0 4.21584e-05
27 *312:16 *443:68 6.89925e-05
28 *312:16 *445:137 0.00012729
29 *312:26 *445:137 0.000153062
30 *312:32 *443:88 3.72932e-05
31 *312:32 *444:271 0
32 *312:42 *443:88 3.20153e-05
33 *312:46 *1206:A1 0.000103041
34 *312:46 *1318:A0 6.48594e-05
35 *312:46 *444:127 0.00018616
36 *312:46 *444:137 8.15095e-05
37 *312:77 *1142:A1 0
38 *312:77 *1312:A0 0.000170964
39 *312:77 *339:10 3.18676e-05
40 *312:77 *427:10 0.000142152
41 *312:77 *435:10 3.79197e-05
42 *312:120 *1136:S1 9.54385e-05
43 *312:120 *443:68 0.00015811
44 *312:120 *443:80 0
45 *1146:S0 *312:42 0
46 *1159:A2 *312:32 3.21389e-05
47 *1162:S0 *312:26 7.48356e-05
48 *1164:A1 *312:120 0
49 *1164:A3 *312:120 0
50 *1169:A1 *312:42 8.90582e-05
51 *1174:A3 *312:42 0.000234783
52 *1187:B *312:10 9.49092e-05
53 *1206:A0 *1317:S 2.49484e-05
54 *1206:S *312:77 0.000139913
55 *1247:A *312:10 4.66777e-05
56 *1248:S *312:120 0.000475036
57 *1249:S *312:77 0.000124838
58 *1315:A1 *1315:S 0.000102197
59 *1317:A1 *1317:S 0.000355341
60 *1345:CLK *312:77 0.000331712
61 *1345:D *312:77 1.76204e-05
62 *1349:D *312:16 0.000397196
63 *1385:D *312:77 0.000106467
64 *1388:D *312:42 0
65 *1405:CLK *1311:S 1.24368e-05
66 *1405:CLK *1314:S 0.000173083
67 *1441:D *312:77 0.000123633
68 *1444:D *1315:S 0.000140933
69 *1453:D *1311:S 2.89114e-05
70 *1453:D *1314:S 0
71 *1453:D *312:120 0.000202921
72 *87:43 *312:26 0.000248938
73 *87:43 *312:32 0.000200413
74 *87:49 *312:32 0.000226021
75 *88:32 *312:77 9.24825e-05
76 *90:66 *312:16 0
77 *104:82 *312:120 9.41642e-05
78 *104:104 *312:10 0
79 *105:40 *312:77 1.32552e-05
80 *105:42 *312:77 1.32552e-05
81 *105:48 *312:77 0
82 *106:165 *1315:S 0.000339013
83 *106:165 *312:32 1.33343e-05
84 *106:180 *312:32 0.000227748
85 *109:131 *1314:S 0.000115694
86 *109:151 *312:16 0.000526695
87 *109:151 *312:26 9.25014e-06
88 *110:36 *312:42 0.000136951
89 *111:47 *312:42 0.00010415
90 *114:83 *312:42 0
91 *263:14 *312:77 7.28277e-05
92 *271:28 *312:120 0
93 *296:26 *312:42 0.000451116
94 *296:32 *1317:S 3.34366e-05
95 *296:32 *312:42 0.000511085
96 *296:32 *312:46 0.00072328
97 *302:8 *312:10 0.000140933
98 *305:6 *312:120 0.000266479
99 *305:16 *312:26 0.000191722
100 *307:100 *1314:S 2.89016e-05
101 *310:12 *312:10 0
102 *310:12 *312:16 0
103 *310:18 *312:26 0.000102269
104 *310:18 *312:32 0.00016676
*RES
1 *1310:Y *312:10 19.2208 
2 *312:10 *312:16 16.6585 
3 *312:16 *312:26 23.0842 
4 *312:26 *312:32 18.1139 
5 *312:32 *312:42 37.317 
6 *312:42 *312:46 17.2971 
7 *312:46 *1317:S 21.5476 
8 *312:46 *312:77 47.6833 
9 *312:77 *1312:S 9.3 
10 *312:42 *1318:S 9.3 
11 *312:32 *1315:S 17.4931 
12 *312:26 *1313:S 13.8 
13 *312:16 *1316:S 13.8 
14 *312:10 *312:120 28.109 
15 *312:120 *1314:S 22.7852 
16 *312:120 *1311:S 15.1366 
*END

*D_NET *313 0.0203967
*CONN
*I *1320:S I *D sky130_fd_sc_hd__mux2_1
*I *1323:S I *D sky130_fd_sc_hd__mux2_1
*I *1324:S I *D sky130_fd_sc_hd__mux2_1
*I *1327:S I *D sky130_fd_sc_hd__mux2_1
*I *1321:S I *D sky130_fd_sc_hd__mux2_1
*I *1326:S I *D sky130_fd_sc_hd__mux2_1
*I *1322:S I *D sky130_fd_sc_hd__mux2_1
*I *1325:S I *D sky130_fd_sc_hd__mux2_1
*I *1319:Y O *D sky130_fd_sc_hd__nand2b_1
*CAP
1 *1320:S 0.000281044
2 *1323:S 1.64648e-05
3 *1324:S 0
4 *1327:S 0
5 *1321:S 0.0004108
6 *1326:S 0.000518466
7 *1322:S 0.000247301
8 *1325:S 8.52327e-05
9 *1319:Y 0.00016045
10 *313:66 0.00106141
11 *313:64 0.000512369
12 *313:39 0.000758864
13 *313:37 0.000810505
14 *313:29 0.00106965
15 *313:25 0.00169626
16 *313:10 0.00128688
17 *1321:S *1143:S1 0
18 *1321:S *1321:A1 5.71472e-05
19 *1321:S *321:10 1.74352e-05
20 *1321:S *401:10 5.71472e-05
21 *1321:S *409:10 4.4787e-05
22 *1321:S *444:73 0
23 *1321:S *444:92 0.000139251
24 *1322:S *1148:A3 0.000201135
25 *1326:S *1142:S1 3.17148e-05
26 *1326:S *1166:S1 9.30022e-05
27 *1326:S *1200:A1 3.80953e-06
28 *1326:S *1294:A0 9.80125e-05
29 *1326:S *1326:A1 0.000360894
30 *1326:S *444:92 0.000239478
31 *1326:S *444:94 7.39741e-05
32 *1326:S *444:127 5.33005e-05
33 *313:10 *1248:A0 9.32007e-05
34 *313:25 *1163:A3 7.52405e-05
35 *313:25 *442:74 0
36 *313:25 *442:84 0
37 *313:29 *1163:A0 7.83475e-05
38 *313:29 *1163:A1 0.000222892
39 *313:64 *1273:A0 0
40 *1127:A *313:64 0
41 *1159:A0 *1322:S 0.000170561
42 *1159:A0 *313:39 0.00033295
43 *1200:S *1326:S 7.48002e-05
44 *1208:C *313:10 9.25014e-06
45 *1215:S *313:64 0.000301676
46 *1268:A1 *1322:S 0.000104236
47 *1294:A1 *1326:S 5.52238e-05
48 *1294:S *1326:S 0.000170508
49 *1319:B *313:10 9.23811e-05
50 *1322:A0 *1322:S 3.4879e-05
51 *1359:CLK *1321:S 0.000140933
52 *1359:D *1321:S 0.00043259
53 *1380:CLK *313:37 0.000177955
54 *1381:CLK *313:29 0.000170055
55 *1384:D *313:10 0
56 *1401:CLK *1321:S 0.000534229
57 *1403:D *313:37 0
58 *1407:D *313:64 0
59 *1440:D *313:10 0.000147136
60 *1453:D *1325:S 9.60939e-05
61 *1455:CLK *1326:S 3.80953e-06
62 *1:21 *313:25 0.000356597
63 *68:20 *313:25 0
64 *68:53 *313:64 0
65 *68:216 *1320:S 0.000717304
66 *68:216 *313:25 0.000921033
67 *89:12 *313:64 5.4447e-05
68 *89:14 *1326:S 7.79781e-06
69 *89:14 *313:64 4.1331e-06
70 *89:14 *313:66 0.000126601
71 *89:20 *1321:S 0
72 *89:20 *1326:S 5.89643e-05
73 *91:21 *313:37 0.000193664
74 *91:23 *313:37 4.56437e-05
75 *91:64 *313:37 9.31567e-05
76 *91:75 *313:37 0.00011077
77 *91:90 *1323:S 2.89114e-05
78 *91:90 *313:37 9.99246e-05
79 *91:94 *313:29 0.000109819
80 *91:94 *313:37 2.94103e-05
81 *98:16 *1322:S 8.90595e-05
82 *104:94 *1325:S 0.000185029
83 *104:94 *313:10 5.41797e-06
84 *105:42 *1326:S 0
85 *106:123 *1322:S 1.39726e-05
86 *107:24 *313:37 0
87 *107:50 *1323:S 2.89114e-05
88 *108:10 *1320:S 6.27272e-06
89 *108:32 *313:39 0.00010096
90 *108:40 *1322:S 0.000484511
91 *108:40 *313:39 0.000273565
92 *111:12 *313:29 0
93 *111:18 *313:29 0
94 *111:18 *313:37 0
95 *111:18 *313:64 0
96 *114:18 *313:37 0
97 *114:47 *1321:S 2.51343e-06
98 *114:60 *1326:S 9.7659e-05
99 *296:10 *313:10 0
100 *298:26 *313:29 0.000342784
101 *298:38 *313:29 6.84616e-05
102 *303:14 *313:29 1.59689e-05
103 *303:34 *313:64 0.000778324
104 *303:40 *1326:S 0.000209289
105 *303:40 *313:64 0.000210935
106 *303:40 *313:66 0.000336389
107 *307:20 *1325:S 0.000163444
108 *307:20 *313:10 0.00011931
*RES
1 *1319:Y *313:10 20.8669 
2 *313:10 *1325:S 18.0203 
3 *313:10 *313:25 6.76323 
4 *313:25 *313:29 19.7838 
5 *313:29 *313:37 25.7872 
6 *313:37 *313:39 8.14361 
7 *313:39 *1322:S 30.7506 
8 *313:39 *313:64 22.8417 
9 *313:64 *313:66 6.06439 
10 *313:66 *1326:S 46.3892 
11 *313:66 *1321:S 32.0179 
12 *313:64 *1327:S 13.8 
13 *313:37 *1324:S 9.3 
14 *313:29 *1323:S 14.5426 
15 *313:25 *1320:S 18.8242 
*END

*D_NET *314 0.00177028
*CONN
*I *1138:A0 I *D sky130_fd_sc_hd__mux4_2
*I *1209:A1 I *D sky130_fd_sc_hd__mux2_1
*I *1352:Q O *D sky130_fd_sc_hd__dfxtp_1
*CAP
1 *1138:A0 0
2 *1209:A1 0.000220846
3 *1352:Q 0.000232951
4 *314:10 0.000453796
5 *1209:A1 *1138:A1 3.47641e-06
6 *1209:A1 *1266:A0 3.22325e-05
7 *1209:A1 *443:20 5.33433e-05
8 *1209:A1 *443:30 0.000131835
9 *314:10 *1138:A1 8.91057e-05
10 *314:10 *1266:A0 5.48248e-05
11 *314:10 *491:28 0.000230206
12 *1209:S *1209:A1 2.8266e-06
13 *1352:D *1209:A1 5.00841e-06
14 *1352:D *314:10 7.08094e-05
15 *1400:D *1209:A1 0.00010096
16 *1541:CLK *314:10 0
17 *81:20 *1209:A1 0
18 *82:20 *314:10 0
19 *94:28 *314:10 8.80545e-05
*RES
1 *1352:Q *314:10 23.305 
2 *314:10 *1209:A1 21.1763 
3 *314:10 *1138:A0 13.8 
*END

*D_NET *315 0.00191874
*CONN
*I *1210:A1 I *D sky130_fd_sc_hd__mux2_1
*I *1143:A0 I *D sky130_fd_sc_hd__mux4_2
*I *1353:Q O *D sky130_fd_sc_hd__dfxtp_1
*CAP
1 *1210:A1 0.000113637
2 *1143:A0 0.00011761
3 *1353:Q 0.00014936
4 *315:10 0.000380607
5 *1143:A0 *1239:A1 2.8266e-06
6 *1143:A0 *371:10 6.67528e-05
7 *1143:A0 *403:10 0
8 *1210:A1 *371:10 7.32955e-05
9 *1210:S *1143:A0 0
10 *1210:S *1210:A1 0.000319134
11 *1210:S *315:10 6.81335e-05
12 *1267:S *1143:A0 0
13 *1353:D *315:10 0.000186669
14 *100:42 *1210:A1 0.000440718
15 *105:24 *1143:A0 0
16 *298:86 *315:10 0
17 *303:55 *1143:A0 0
18 *303:55 *315:10 0
*RES
1 *1353:Q *315:10 19.1589 
2 *315:10 *1143:A0 17.55 
3 *315:10 *1210:A1 20.7926 
*END

*D_NET *316 0.00100728
*CONN
*I *1211:A1 I *D sky130_fd_sc_hd__mux2_1
*I *1148:A0 I *D sky130_fd_sc_hd__mux4_2
*I *1354:Q O *D sky130_fd_sc_hd__dfxtp_1
*CAP
1 *1211:A1 4.41809e-05
2 *1148:A0 8.97496e-05
3 *1354:Q 4.68088e-05
4 *316:10 0.000180739
5 *1211:A0 *1148:A0 0.000312396
6 *1211:A0 *1211:A1 9.90431e-05
7 *1211:S *1211:A1 2.14658e-05
8 *1215:S *316:10 0
9 *1354:CLK *1148:A0 2.07822e-05
10 *1354:CLK *1211:A1 1.42064e-05
11 *1354:D *316:10 4.31253e-05
12 *111:18 *316:10 3.57372e-05
13 *268:22 *1148:A0 9.90431e-05
*RES
1 *1354:Q *316:10 20.1564 
2 *316:10 *1148:A0 13.4584 
3 *316:10 *1211:A1 11.1812 
*END

*D_NET *317 0.00119714
*CONN
*I *1151:A0 I *D sky130_fd_sc_hd__mux4_2
*I *1212:A1 I *D sky130_fd_sc_hd__mux2_1
*I *1355:Q O *D sky130_fd_sc_hd__dfxtp_1
*CAP
1 *1151:A0 0
2 *1212:A1 9.74346e-05
3 *1355:Q 7.37971e-05
4 *317:10 0.000171232
5 *1212:A1 *1241:A1 0.000108111
6 *1212:A1 *373:6 6.12793e-05
7 *1212:A0 *1212:A1 0.000229456
8 *1241:S *1212:A1 0
9 *1355:D *1212:A1 5.52302e-05
10 *1355:D *317:10 4.73471e-05
11 *1379:CLK *317:10 0
12 *1379:D *1212:A1 0.00013059
13 *1379:D *317:10 1.02504e-05
14 *114:14 *1212:A1 9.11365e-06
15 *114:14 *317:10 6.48594e-05
16 *270:24 *317:10 0.000138441
*RES
1 *1355:Q *317:10 17.6614 
2 *317:10 *1212:A1 19.6664 
3 *317:10 *1151:A0 13.8 
*END

*D_NET *318 0.00080525
*CONN
*I *1213:A1 I *D sky130_fd_sc_hd__mux2_1
*I *1158:A0 I *D sky130_fd_sc_hd__mux4_2
*I *1356:Q O *D sky130_fd_sc_hd__dfxtp_1
*CAP
1 *1213:A1 0.000144034
2 *1158:A0 7.69534e-05
3 *1356:Q 3.43824e-05
4 *318:6 0.00025537
5 *1091:A0 *1213:A1 6.87834e-05
6 *1241:S *1158:A0 0
7 *1242:A0 *1158:A0 0.00018037
8 *1356:D *1213:A1 1.92905e-05
9 *1356:D *318:6 1.58163e-05
10 *1380:CLK *1213:A1 0
11 *1380:D *1158:A0 1.02504e-05
12 *1380:D *1213:A1 0
*RES
1 *1356:Q *318:6 10.0426 
2 *318:6 *1158:A0 21.4188 
3 *318:6 *1213:A1 13.904 
*END

*D_NET *319 0.00159662
*CONN
*I *1214:A1 I *D sky130_fd_sc_hd__mux2_1
*I *1163:A0 I *D sky130_fd_sc_hd__mux4_2
*I *1357:Q O *D sky130_fd_sc_hd__dfxtp_1
*CAP
1 *1214:A1 0.000337685
2 *1163:A0 0.000203309
3 *1357:Q 0
4 *319:6 0.000540994
5 *1163:A0 *1163:A1 5.80706e-06
6 *1214:A1 *445:80 0
7 *1214:S *1214:A1 0
8 *81:28 *1163:A0 9.90431e-05
9 *104:66 *1214:A1 0.000230475
10 *107:14 *1163:A0 0
11 *107:14 *1214:A1 0
12 *280:16 *1163:A0 0.00010096
13 *303:14 *1214:A1 0
14 *313:29 *1163:A0 7.83475e-05
*RES
1 *1357:Q *319:6 13.8 
2 *319:6 *1163:A0 20.3347 
3 *319:6 *1214:A1 22.8842 
*END

*D_NET *320 0.00143693
*CONN
*I *1215:A1 I *D sky130_fd_sc_hd__mux2_1
*I *1166:A0 I *D sky130_fd_sc_hd__mux4_2
*I *1358:Q O *D sky130_fd_sc_hd__dfxtp_1
*CAP
1 *1215:A1 5.00222e-05
2 *1166:A0 0.000280738
3 *1358:Q 0.000123238
4 *320:10 0.000453998
5 *1166:A0 *1166:A3 0
6 *1166:A0 *376:12 3.18206e-05
7 *1144:A2 *1215:A1 0.000186662
8 *1144:A2 *320:10 2.47833e-05
9 *1144:A3 *320:10 0
10 *1166:S0 *1166:A0 2.72615e-05
11 *1169:A0 *1166:A0 3.13645e-05
12 *1215:S *320:10 2.80937e-05
13 *1244:A0 *1166:A0 0
14 *1272:S *1215:A1 6.78055e-06
15 *101:16 *1166:A0 5.52238e-05
16 *263:14 *1166:A0 0
17 *307:63 *1215:A1 1.32724e-05
18 *307:63 *320:10 0.000123673
*RES
1 *1358:Q *320:10 18.2555 
2 *320:10 *1166:A0 20.1862 
3 *320:10 *1215:A1 16.2505 
*END

*D_NET *321 0.0013514
*CONN
*I *1216:A1 I *D sky130_fd_sc_hd__mux2_1
*I *1173:A0 I *D sky130_fd_sc_hd__mux4_2
*I *1359:Q O *D sky130_fd_sc_hd__dfxtp_1
*CAP
1 *1216:A1 0.000143298
2 *1173:A0 0
3 *1359:Q 8.50451e-05
4 *321:10 0.000228343
5 *1216:A1 *1245:A1 0
6 *1216:A1 *377:10 0
7 *321:10 *1245:A1 0
8 *321:10 *444:73 2.73444e-05
9 *1173:S0 *1216:A1 0.000177948
10 *1216:A0 *1216:A1 3.30352e-05
11 *1321:S *321:10 1.74352e-05
12 *1359:D *1216:A1 0.00018037
13 *1359:D *321:10 0.00016092
14 *89:105 *1216:A1 0
15 *100:20 *1216:A1 0.000225616
16 *288:18 *1216:A1 7.20491e-05
*RES
1 *1359:Q *321:10 16.9683 
2 *321:10 *1173:A0 13.8 
3 *321:10 *1216:A1 20.7802 
*END

*D_NET *322 0.0010546
*CONN
*I *1177:A0 I *D sky130_fd_sc_hd__mux2_1
*I *1135:A0 I *D sky130_fd_sc_hd__mux4_2
*I *1328:Q O *D sky130_fd_sc_hd__dfxtp_1
*CAP
1 *1177:A0 4.56519e-05
2 *1135:A0 0.000199261
3 *1328:Q 3.30737e-05
4 *322:8 0.000277986
5 *1135:A0 *1135:S0 2.81497e-05
6 *1135:A0 *1257:A0 3.05446e-05
7 *1177:A1 *1135:A0 0
8 *1177:S *1177:A0 8.41603e-05
9 *1257:A1 *1135:A0 0
10 *1328:D *1135:A0 1.02504e-05
11 *1328:D *322:8 7.46814e-05
12 *1392:D *1135:A0 0.000255052
13 *1689:CLK *322:8 0
14 *79:176 *1177:A0 1.57931e-05
15 *104:189 *1135:A0 0
*RES
1 *1328:Q *322:8 15.2357 
2 *322:8 *1135:A0 20.3347 
3 *322:8 *1177:A0 15.6812 
*END

*D_NET *323 0.00109681
*CONN
*I *1178:A0 I *D sky130_fd_sc_hd__mux2_1
*I *1140:A0 I *D sky130_fd_sc_hd__mux4_2
*I *1329:Q O *D sky130_fd_sc_hd__dfxtp_1
*CAP
1 *1178:A0 0.000266479
2 *1140:A0 0
3 *1329:Q 7.32671e-05
4 *323:10 0.000339746
5 *1178:A0 *1682:D 0
6 *1178:A0 *331:10 0
7 *1119:A *1178:A0 0.00018372
8 *1258:A1 *1178:A0 7.1724e-05
9 *1258:A1 *323:10 1.00375e-05
10 *105:202 *1178:A0 7.99632e-05
11 *105:221 *1178:A0 0
12 *108:194 *323:10 6.78055e-06
13 *261:12 *323:10 6.50885e-05
*RES
1 *1329:Q *323:10 16.399 
2 *323:10 *1140:A0 13.8 
3 *323:10 *1178:A0 23.1565 
*END

*D_NET *324 0.00114729
*CONN
*I *1145:A0 I *D sky130_fd_sc_hd__mux4_2
*I *1179:A0 I *D sky130_fd_sc_hd__mux2_1
*I *1330:Q O *D sky130_fd_sc_hd__dfxtp_1
*CAP
1 *1145:A0 0.000169114
2 *1179:A0 0
3 *1330:Q 8.22053e-05
4 *324:10 0.00025132
5 *1145:A0 *1145:A1 9.25014e-06
6 *1145:A0 *1145:S0 2.28598e-05
7 *1145:A0 *332:8 1.40415e-05
8 *1145:A0 *442:172 1.24368e-05
9 *1276:S *324:10 0.000125057
10 *79:37 *1145:A0 9.95308e-05
11 *106:36 *324:10 6.97494e-05
12 *106:57 *324:10 1.00073e-05
13 *265:8 *1145:A0 7.17603e-05
14 *265:8 *324:10 3.20153e-05
15 *290:42 *1145:A0 9.30093e-05
16 *290:42 *324:10 8.49318e-05
17 *290:59 *1145:A0 0
*RES
1 *1330:Q *324:10 18.2555 
2 *324:10 *1179:A0 13.8 
3 *324:10 *1145:A0 19.7654 
*END

*D_NET *325 0.00120286
*CONN
*I *1152:A0 I *D sky130_fd_sc_hd__mux4_2
*I *1180:A0 I *D sky130_fd_sc_hd__mux2_1
*I *1331:Q O *D sky130_fd_sc_hd__dfxtp_1
*CAP
1 *1152:A0 9.68847e-05
2 *1180:A0 0.00011397
3 *1331:Q 0
4 *325:6 0.000210855
5 *1180:A1 *1180:A0 5.67246e-05
6 *1180:S *1180:A0 5.52302e-05
7 *1278:S *1152:A0 1.76039e-05
8 *1278:S *1180:A0 5.54602e-05
9 *107:178 *1152:A0 4.98055e-06
10 *107:178 *1180:A0 2.8266e-06
11 *111:197 *1180:A0 0.000270326
12 *212:14 *1152:A0 0.000175519
13 *308:8 *1180:A0 2.94103e-05
14 *308:12 *1180:A0 0.000113073
*RES
1 *1331:Q *325:6 13.8 
2 *325:6 *1180:A0 20.0872 
3 *325:6 *1152:A0 17.3396 
*END

*D_NET *326 0.00115474
*CONN
*I *1181:A0 I *D sky130_fd_sc_hd__mux2_1
*I *1155:A0 I *D sky130_fd_sc_hd__mux4_2
*I *1332:Q O *D sky130_fd_sc_hd__dfxtp_1
*CAP
1 *1181:A0 0
2 *1155:A0 0.000136085
3 *1332:Q 0.000126279
4 *326:12 0.000262364
5 *1155:A0 *444:328 0.000146523
6 *1332:D *1155:A0 0
7 *92:16 *326:12 0
8 *265:8 *326:12 0.000155469
9 *273:8 *1155:A0 2.44318e-05
10 *290:32 *326:12 7.17189e-05
11 *290:42 *1155:A0 0.00022266
12 *290:42 *326:12 9.20581e-06
*RES
1 *1332:Q *326:12 22.8792 
2 *326:12 *1155:A0 14.6218 
3 *326:12 *1181:A0 9.3 
*END

*D_NET *327 0.000822909
*CONN
*I *1182:A0 I *D sky130_fd_sc_hd__mux2_1
*I *1160:A0 I *D sky130_fd_sc_hd__mux4_2
*I *1333:Q O *D sky130_fd_sc_hd__dfxtp_1
*CAP
1 *1182:A0 6.93011e-05
2 *1160:A0 0.000135245
3 *1333:Q 7.97787e-05
4 *327:8 0.000284325
5 *1160:A0 *1135:S1 0
6 *1160:A0 *335:10 0
7 *1182:A0 *367:10 0
8 *1182:A1 *1160:A0 6.39901e-05
9 *1182:A1 *1182:A0 7.40249e-05
10 *1228:S *327:8 4.97621e-05
11 *1333:D *1160:A0 0
12 *1333:D *1182:A0 0
13 *1333:D *327:8 3.69047e-06
14 *1368:CLK *327:8 0
15 *1368:D *1182:A0 0
16 *109:44 *1160:A0 4.35131e-05
17 *109:48 *1160:A0 1.92789e-05
*RES
1 *1333:Q *327:8 16.2505 
2 *327:8 *1160:A0 18.0822 
3 *327:8 *1182:A0 16.498 
*END

*D_NET *328 0.00108326
*CONN
*I *1183:A0 I *D sky130_fd_sc_hd__mux2_1
*I *1167:A0 I *D sky130_fd_sc_hd__mux4_2
*I *1334:Q O *D sky130_fd_sc_hd__dfxtp_1
*CAP
1 *1183:A0 3.07089e-05
2 *1167:A0 0.000106761
3 *1334:Q 0.000122815
4 *328:8 0.000260285
5 *1167:A0 *1167:S0 1.92905e-05
6 *1167:A0 *1263:A0 1.07719e-05
7 *328:8 *1263:A0 4.47653e-05
8 *1263:A1 *1167:A0 3.17067e-05
9 *1263:A1 *1183:A0 8.81278e-05
10 *1334:D *328:8 1.58163e-05
11 *110:241 *328:8 0
12 *273:10 *1167:A0 0
13 *277:30 *1167:A0 0.000203557
14 *277:30 *1183:A0 0.000148656
*RES
1 *1334:Q *328:8 16.8198 
2 *328:8 *1167:A0 18.0822 
3 *328:8 *1183:A0 16.498 
*END

*D_NET *329 0.000800704
*CONN
*I *1170:A0 I *D sky130_fd_sc_hd__mux4_2
*I *1184:A0 I *D sky130_fd_sc_hd__mux2_1
*I *1335:Q O *D sky130_fd_sc_hd__dfxtp_1
*CAP
1 *1170:A0 2.5891e-05
2 *1184:A0 0.000137051
3 *1335:Q 3.06534e-05
4 *329:8 0.000193596
5 *1170:A0 *1170:A1 5.33005e-05
6 *1170:A0 *444:397 3.69047e-06
7 *1184:A0 *444:310 0.0002253
8 *1184:A0 *444:397 4.49293e-05
9 *329:8 *444:397 8.32242e-05
10 *1335:D *1184:A0 0
11 *1335:D *329:8 0
12 *1371:CLK *1170:A0 3.06878e-06
13 *290:19 *1184:A0 0
14 *290:32 *1184:A0 0
*RES
1 *1335:Q *329:8 15.2357 
2 *329:8 *1184:A0 18.602 
3 *329:8 *1170:A0 14.5426 
*END

*D_NET *330 0.0010619
*CONN
*I *1135:A1 I *D sky130_fd_sc_hd__mux4_2
*I *1257:A0 I *D sky130_fd_sc_hd__mux2_1
*I *1392:Q O *D sky130_fd_sc_hd__dfxtp_1
*CAP
1 *1135:A1 0
2 *1257:A0 9.38725e-05
3 *1392:Q 5.46958e-05
4 *330:10 0.000148568
5 *1257:A0 *1135:S0 0
6 *1135:A0 *1257:A0 3.05446e-05
7 *1392:D *1257:A0 0.000133012
8 *1392:D *330:10 0.000157899
9 *104:157 *1257:A0 7.63214e-05
10 *104:157 *330:10 8.23111e-05
11 *104:189 *330:10 5.52238e-05
12 *109:34 *1257:A0 0.000229456
*RES
1 *1392:Q *330:10 17.2406 
2 *330:10 *1257:A0 19.0971 
3 *330:10 *1135:A1 13.8 
*END

*D_NET *331 0.0013045
*CONN
*I *1140:A1 I *D sky130_fd_sc_hd__mux4_2
*I *1258:A0 I *D sky130_fd_sc_hd__mux2_1
*I *1393:Q O *D sky130_fd_sc_hd__dfxtp_1
*CAP
1 *1140:A1 0
2 *1258:A0 7.44029e-05
3 *1393:Q 0.00011926
4 *331:10 0.000193663
5 *1258:A0 *442:145 0.000214093
6 *331:10 *442:145 2.49484e-05
7 *331:10 *442:152 7.40153e-05
8 *1178:A0 *331:10 0
9 *1258:A1 *1258:A0 0.000356342
10 *1258:A1 *331:10 0.00018037
11 *105:221 *331:10 5.33005e-05
12 *106:36 *331:10 0
13 *261:12 *1258:A0 1.41029e-05
*RES
1 *1393:Q *331:10 18.8 
2 *331:10 *1258:A0 20.2852 
3 *331:10 *1140:A1 13.8 
*END

*D_NET *332 0.00168963
*CONN
*I *1259:A0 I *D sky130_fd_sc_hd__mux2_1
*I *1145:A1 I *D sky130_fd_sc_hd__mux4_2
*I *1394:Q O *D sky130_fd_sc_hd__dfxtp_1
*CAP
1 *1259:A0 0.000223806
2 *1145:A1 8.45862e-05
3 *1394:Q 0.000149087
4 *332:8 0.000457479
5 *1145:A1 *442:172 9.80173e-05
6 *332:8 *1145:S0 7.50473e-05
7 *332:8 *442:172 2.87555e-06
8 *1145:A0 *1145:A1 9.25014e-06
9 *1145:A0 *332:8 1.40415e-05
10 *1257:S *332:8 0
11 *1259:A1 *1259:A0 5.33005e-05
12 *1259:S *1259:A0 5.52238e-05
13 *1408:D *1259:A0 2.8266e-06
14 *79:37 *1145:A1 0.000108118
15 *79:37 *1259:A0 0.000124469
16 *79:137 *1259:A0 0.000191648
17 *306:68 *1259:A0 3.98559e-05
*RES
1 *1394:Q *332:8 18.5277 
2 *332:8 *1145:A1 16.9683 
3 *332:8 *1259:A0 21.0525 
*END

*D_NET *333 0.00115257
*CONN
*I *1260:A0 I *D sky130_fd_sc_hd__mux2_1
*I *1152:A1 I *D sky130_fd_sc_hd__mux4_2
*I *1395:Q O *D sky130_fd_sc_hd__dfxtp_1
*CAP
1 *1260:A0 0.000132853
2 *1152:A1 0.000118106
3 *1395:Q 0
4 *333:6 0.00025096
5 *1152:A1 *1278:A0 0
6 *1152:A1 *365:8 0
7 *1132:A *1260:A0 2.34423e-05
8 *1260:A1 *1152:A1 0.00028166
9 *1260:A1 *1260:A0 0.000331448
10 *1260:S *1260:A0 1.41029e-05
11 *1395:D *1152:A1 0
12 *1395:D *1260:A0 0
13 *261:14 *1260:A0 0
*RES
1 *1395:Q *333:6 13.8 
2 *333:6 *1152:A1 18.602 
3 *333:6 *1260:A0 19.8644 
*END

*D_NET *334 0.000983296
*CONN
*I *1261:A0 I *D sky130_fd_sc_hd__mux2_1
*I *1155:A1 I *D sky130_fd_sc_hd__mux4_2
*I *1396:Q O *D sky130_fd_sc_hd__dfxtp_1
*CAP
1 *1261:A0 8.36376e-05
2 *1155:A1 2.64556e-05
3 *1396:Q 0.000134685
4 *334:14 0.000244778
5 *1155:A1 *444:328 5.33005e-05
6 *1261:A0 *1155:S0 9.4724e-05
7 *1261:A0 *444:328 4.88631e-05
8 *334:14 *1155:S0 5.83233e-05
9 *334:14 *444:328 0
10 *1396:D *334:14 0
11 *92:26 *334:14 3.67142e-05
12 *277:10 *1261:A0 5.43491e-05
13 *277:10 *334:14 9.86019e-05
14 *306:45 *1261:A0 4.88631e-05
*RES
1 *1396:Q *334:14 19.1466 
2 *334:14 *1155:A1 14.5426 
3 *334:14 *1261:A0 17.5376 
*END

*D_NET *335 0.00159597
*CONN
*I *1262:A0 I *D sky130_fd_sc_hd__mux2_1
*I *1160:A1 I *D sky130_fd_sc_hd__mux4_2
*I *1397:Q O *D sky130_fd_sc_hd__dfxtp_1
*CAP
1 *1262:A0 0.000224361
2 *1160:A1 0
3 *1397:Q 0.000192667
4 *335:10 0.000417028
5 *1262:A0 *1160:S1 0
6 *1262:A0 *1233:A0 0.000312209
7 *335:10 *367:10 0
8 *1160:A0 *335:10 0
9 *1262:S *1262:A0 4.43256e-05
10 *1333:D *335:10 0.000157906
11 *109:44 *335:10 0
12 *109:48 *1262:A0 0.000247479
*RES
1 *1397:Q *335:10 23.5228 
2 *335:10 *1160:A1 9.3 
3 *335:10 *1262:A0 18.607 
*END

*D_NET *336 0.000860462
*CONN
*I *1263:A0 I *D sky130_fd_sc_hd__mux2_1
*I *1167:A1 I *D sky130_fd_sc_hd__mux4_2
*I *1398:Q O *D sky130_fd_sc_hd__dfxtp_1
*CAP
1 *1263:A0 0.000125433
2 *1167:A1 8.89282e-05
3 *1398:Q 8.27443e-05
4 *336:8 0.000297106
5 *1167:A1 *1167:A2 0
6 *1167:A1 *1281:A0 0
7 *1167:A1 *368:10 0
8 *1263:A0 *1167:S0 0
9 *336:8 *1167:A2 0
10 *1167:A0 *1263:A0 1.07719e-05
11 *1334:D *1263:A0 5.52302e-05
12 *1334:D *336:8 0.000155484
13 *110:232 *1263:A0 0
14 *277:30 *1167:A1 0
15 *328:8 *1263:A0 4.47653e-05
*RES
1 *1398:Q *336:8 16.9188 
2 *336:8 *1167:A1 16.0772 
3 *336:8 *1263:A0 17.3891 
*END

*D_NET *337 0.00160183
*CONN
*I *1264:A0 I *D sky130_fd_sc_hd__mux2_1
*I *1170:A1 I *D sky130_fd_sc_hd__mux4_2
*I *1399:Q O *D sky130_fd_sc_hd__dfxtp_1
*CAP
1 *1264:A0 0.00010875
2 *1170:A1 0.00017043
3 *1399:Q 0
4 *337:6 0.00027918
5 *1170:A1 *1170:S0 4.27437e-05
6 *1170:A1 *444:314 0.000183713
7 *1170:A1 *444:397 1.65169e-05
8 *1170:A0 *1170:A1 5.33005e-05
9 *1264:A1 *1170:A1 0.000304846
10 *1264:A1 *1264:A0 0.000196728
11 *1264:S *1264:A0 2.89016e-05
12 *1371:CLK *1170:A1 0
13 *92:16 *1264:A0 8.46044e-06
14 *104:157 *1170:A1 0.000119189
15 *104:157 *1264:A0 8.90675e-05
16 *290:32 *1264:A0 0
*RES
1 *1399:Q *337:6 13.8 
2 *337:6 *1170:A1 22.6119 
3 *337:6 *1264:A0 19.0723 
*END

*D_NET *338 0.0014973
*CONN
*I *1136:A2 I *D sky130_fd_sc_hd__mux4_2
*I *1293:A0 I *D sky130_fd_sc_hd__mux2_1
*I *1424:Q O *D sky130_fd_sc_hd__dfxtp_1
*CAP
1 *1136:A2 0.000180324
2 *1293:A0 0.000260254
3 *1424:Q 4.32819e-05
4 *338:10 0.000483861
5 *1136:A2 *1136:A3 2.26714e-05
6 *1293:A0 *1236:B 3.69047e-06
7 *1237:C *1136:A2 0.000118604
8 *1237:C *338:10 3.20153e-05
9 *1293:A1 *1293:A0 4.83091e-05
10 *1293:S *1293:A0 7.49387e-06
11 *1384:D *1293:A0 7.67542e-05
12 *104:104 *1293:A0 4.54409e-06
13 *257:30 *1136:A2 1.34703e-05
14 *257:30 *1293:A0 3.42639e-05
15 *259:16 *1136:A2 0
16 *259:16 *1293:A0 0
17 *296:10 *1293:A0 0.00013073
18 *296:10 *338:10 0
19 *297:33 *1136:A2 1.42064e-05
20 *297:33 *1293:A0 2.28261e-05
*RES
1 *1424:Q *338:10 19.7357 
2 *338:10 *1293:A0 18.0129 
3 *338:10 *1136:A2 15.1664 
*END

*D_NET *339 0.00101655
*CONN
*I *1294:A0 I *D sky130_fd_sc_hd__mux2_1
*I *1142:A2 I *D sky130_fd_sc_hd__mux4_2
*I *1425:Q O *D sky130_fd_sc_hd__dfxtp_1
*CAP
1 *1294:A0 0.000127396
2 *1142:A2 1.66503e-05
3 *1425:Q 0.000165013
4 *339:10 0.000309059
5 *1142:A2 *1249:A0 5.52302e-05
6 *1294:A0 *1142:S1 6.16958e-05
7 *339:10 *1142:S1 2.8266e-06
8 *1200:S *1142:A2 1.40415e-05
9 *1200:S *1294:A0 0.000134758
10 *1326:S *1294:A0 9.80125e-05
11 *1345:D *339:10 0
12 *1425:D *1294:A0 0
13 *1425:D *339:10 0
14 *105:48 *339:10 0
15 *312:77 *339:10 3.18676e-05
*RES
1 *1425:Q *339:10 18.0822 
2 *339:10 *1142:A2 14.5426 
3 *339:10 *1294:A0 19.8644 
*END

*D_NET *340 0.00240843
*CONN
*I *1295:A0 I *D sky130_fd_sc_hd__mux2_1
*I *1146:A2 I *D sky130_fd_sc_hd__mux4_2
*I *1426:Q O *D sky130_fd_sc_hd__dfxtp_1
*CAP
1 *1295:A0 0.000193293
2 *1146:A2 0.000196111
3 *1426:Q 0
4 *340:4 0.000389404
5 *1295:A0 *444:271 7.04538e-05
6 *1295:S *1146:A2 6.62868e-05
7 *108:68 *1146:A2 6.28241e-05
8 *261:14 *1146:A2 0.000496717
9 *261:14 *1295:A0 7.36267e-05
10 *273:26 *1295:A0 0.000484524
11 *285:26 *1295:A0 6.15352e-05
12 *305:22 *1146:A2 2.19778e-05
13 *305:28 *1146:A2 0.000173069
14 *305:28 *1295:A0 0.000118604
*RES
1 *1426:Q *340:4 9.3 
2 *340:4 *1146:A2 29.3397 
3 *340:4 *1295:A0 28.2753 
*END

*D_NET *341 0.00160293
*CONN
*I *1296:A0 I *D sky130_fd_sc_hd__mux2_1
*I *1153:A2 I *D sky130_fd_sc_hd__mux4_2
*I *1427:Q O *D sky130_fd_sc_hd__dfxtp_1
*CAP
1 *1296:A0 0.000203139
2 *1153:A2 6.16285e-05
3 *1427:Q 6.27291e-05
4 *341:10 0.000327497
5 *1153:A2 *1153:A3 0.0001399
6 *1296:A0 *1153:A3 0.000108621
7 *1296:A0 *1251:A0 0.000143024
8 *1251:S *1296:A0 6.20913e-05
9 *1251:S *341:10 4.46186e-06
10 *1296:S *1296:A0 5.33334e-05
11 *1347:CLK *1153:A2 0
12 *1347:CLK *341:10 4.01768e-05
13 *1427:D *341:10 0
14 *1443:D *1296:A0 4.84853e-05
15 *1443:D *341:10 2.97756e-05
16 *107:72 *1296:A0 5.52238e-05
17 *107:80 *1296:A0 9.1894e-05
18 *269:16 *1296:A0 0.000170952
*RES
1 *1427:Q *341:10 16.5475 
2 *341:10 *1153:A2 16.2505 
3 *341:10 *1296:A0 22.4387 
*END

*D_NET *342 0.00155276
*CONN
*I *1297:A0 I *D sky130_fd_sc_hd__mux2_1
*I *1157:A2 I *D sky130_fd_sc_hd__mux4_2
*I *1428:Q O *D sky130_fd_sc_hd__dfxtp_1
*CAP
1 *1297:A0 7.63753e-05
2 *1157:A2 0.000182734
3 *1428:Q 0
4 *342:4 0.000259109
5 *1146:S0 *1297:A0 0.000155476
6 *1157:S0 *1157:A2 0.000116099
7 *1159:A2 *1297:A0 0.0001399
8 *108:58 *1157:A2 0
9 *108:58 *1297:A0 4.13496e-05
10 *108:68 *1297:A0 5.71472e-05
11 *273:26 *1157:A2 0.000360547
12 *310:18 *1297:A0 3.34295e-05
13 *310:24 *1297:A0 0.00013059
*RES
1 *1428:Q *342:4 9.3 
2 *342:4 *1157:A2 15.8842 
3 *342:4 *1297:A0 22.8792 
*END

*D_NET *343 0.00211269
*CONN
*I *1162:A2 I *D sky130_fd_sc_hd__mux4_2
*I *1298:A0 I *D sky130_fd_sc_hd__mux2_1
*I *1429:Q O *D sky130_fd_sc_hd__dfxtp_1
*CAP
1 *1162:A2 0.000143439
2 *1298:A0 0.000255655
3 *1429:Q 0
4 *343:4 0.000399094
5 *1162:A2 *1162:A3 4.05548e-05
6 *1162:A2 *1162:S1 1.6539e-05
7 *1162:A2 *1164:S0 8.32242e-05
8 *1162:A2 *443:80 8.32242e-05
9 *1298:A0 *1162:S1 7.17189e-05
10 *1298:A1 *1298:A0 0.000312215
11 *1349:D *1162:A2 0.000184774
12 *87:79 *1298:A0 8.62503e-05
13 *87:88 *1298:A0 1.87955e-05
14 *107:96 *1162:A2 0.000154737
15 *109:190 *1298:A0 3.17148e-05
16 *278:20 *1298:A0 0.000127279
17 *310:12 *1298:A0 0
18 *310:18 *1298:A0 0.00010348
*RES
1 *1429:Q *343:4 9.3 
2 *343:4 *1298:A0 29.9337 
3 *343:4 *1162:A2 24.4634 
*END

*D_NET *344 0.00187991
*CONN
*I *1168:A2 I *D sky130_fd_sc_hd__mux4_2
*I *1299:A0 I *D sky130_fd_sc_hd__mux2_1
*I *1430:Q O *D sky130_fd_sc_hd__dfxtp_1
*CAP
1 *1168:A2 0
2 *1299:A0 0.000245142
3 *1430:Q 0.000286701
4 *344:12 0.000531843
5 *1299:A0 *1168:A3 0.000121896
6 *1299:A0 *1172:A2 6.4443e-05
7 *1299:A0 *1254:A0 8.86413e-05
8 *1299:A0 *1300:A0 2.27416e-05
9 *344:12 *1168:A1 0
10 *344:12 *1168:A3 2.14658e-05
11 *344:12 *1172:A2 1.92789e-05
12 *344:12 *352:10 0
13 *344:12 *444:141 1.19309e-05
14 *1249:S *344:12 0
15 *1254:S *344:12 5.10822e-05
16 *1299:A1 *1299:A0 0.000283512
17 *1391:CLK *1299:A0 9.75849e-06
18 *1430:D *1299:A0 4.45768e-06
19 *1431:D *1299:A0 9.81175e-05
20 *85:43 *1299:A0 1.89009e-05
21 *110:97 *344:12 0
*RES
1 *1430:Q *344:12 25.9486 
2 *344:12 *1299:A0 20.8595 
3 *344:12 *1168:A2 9.3 
*END

*D_NET *345 0.00200818
*CONN
*I *1172:A2 I *D sky130_fd_sc_hd__mux4_2
*I *1300:A0 I *D sky130_fd_sc_hd__mux2_1
*I *1431:Q O *D sky130_fd_sc_hd__dfxtp_1
*CAP
1 *1172:A2 0.000260197
2 *1300:A0 0.000160058
3 *1431:Q 0
4 *345:4 0.000420255
5 *1172:A2 *1168:A3 9.66073e-06
6 *1172:A2 *1172:A3 0.000185643
7 *1172:A2 *1255:A0 2.38671e-05
8 *1172:A2 *444:137 0.000191208
9 *1300:A0 *444:141 0
10 *1254:S *1172:A2 0.000313241
11 *1254:S *1300:A0 0
12 *1299:A0 *1172:A2 6.4443e-05
13 *1299:A0 *1300:A0 2.27416e-05
14 *1299:S *1172:A2 0
15 *1391:CLK *1172:A2 3.18676e-05
16 *1391:CLK *1300:A0 2.89114e-05
17 *1391:D *1300:A0 0
18 *110:91 *1300:A0 0.000276809
19 *310:45 *1172:A2 0
20 *344:12 *1172:A2 1.92789e-05
*RES
1 *1431:Q *345:4 9.3 
2 *345:4 *1300:A0 23.8446 
3 *345:4 *1172:A2 20.8595 
*END

*D_NET *346 0.00149995
*CONN
*I *1136:A3 I *D sky130_fd_sc_hd__mux4_2
*I *1248:A0 I *D sky130_fd_sc_hd__mux2_1
*I *1384:Q O *D sky130_fd_sc_hd__dfxtp_1
*CAP
1 *1136:A3 0.00021607
2 *1248:A0 0.000191972
3 *1384:Q 0
4 *346:4 0.000408042
5 *1136:A3 *1136:A1 0
6 *1136:A3 *1136:S1 0
7 *1248:A0 *443:68 2.28598e-05
8 *1136:A2 *1136:A3 2.26714e-05
9 *1208:C *1248:A0 0.000145747
10 *1237:C *1136:A3 1.1979e-05
11 *1237:C *1248:A0 4.46186e-06
12 *1440:D *1248:A0 4.41341e-05
13 *110:16 *1136:A3 7.98175e-05
14 *110:16 *1248:A0 0
15 *259:16 *1136:A3 7.52765e-05
16 *307:20 *1248:A0 0.000183713
17 *313:10 *1248:A0 9.32007e-05
*RES
1 *1384:Q *346:4 9.3 
2 *346:4 *1248:A0 26.1218 
3 *346:4 *1136:A3 24.8099 
*END

*D_NET *347 0.00138856
*CONN
*I *1142:A3 I *D sky130_fd_sc_hd__mux4_2
*I *1249:A0 I *D sky130_fd_sc_hd__mux2_1
*I *1385:Q O *D sky130_fd_sc_hd__dfxtp_1
*CAP
1 *1142:A3 0
2 *1249:A0 0.000186854
3 *1385:Q 3.228e-05
4 *347:10 0.000219134
5 *1249:A0 *1142:S1 5.52238e-05
6 *347:10 *1142:S1 8.32242e-05
7 *1142:A2 *1249:A0 5.52302e-05
8 *1200:S *1249:A0 1.84708e-05
9 *1345:D *347:10 0.000105689
10 *1385:D *1249:A0 1.23419e-06
11 *105:48 *1249:A0 0.000574073
12 *105:58 *1249:A0 5.71472e-05
13 *114:60 *1249:A0 0
*RES
1 *1385:Q *347:10 20.1564 
2 *347:10 *1249:A0 17.4436 
3 *347:10 *1142:A3 9.3 
*END

*D_NET *348 0.00109842
*CONN
*I *1146:A3 I *D sky130_fd_sc_hd__mux4_2
*I *1250:A0 I *D sky130_fd_sc_hd__mux2_1
*I *1386:Q O *D sky130_fd_sc_hd__dfxtp_1
*CAP
1 *1146:A3 0.00016947
2 *1250:A0 2.32789e-05
3 *1386:Q 0.000107654
4 *348:10 0.000300403
5 *1250:S *1146:A3 1.21258e-05
6 *1295:A1 *348:10 0.00018037
7 *1386:D *348:10 0
8 *106:186 *348:10 2.24646e-05
9 *106:203 *1146:A3 4.08637e-05
10 *106:203 *1250:A0 5.52238e-05
11 *106:207 *1250:A0 2.44318e-05
12 *267:28 *1146:A3 0.00012542
13 *267:28 *1250:A0 3.67142e-05
14 *299:32 *348:10 0
*RES
1 *1386:Q *348:10 21.8396 
2 *348:10 *1250:A0 10.6119 
3 *348:10 *1146:A3 14.6218 
*END

*D_NET *349 0.00123072
*CONN
*I *1251:A0 I *D sky130_fd_sc_hd__mux2_1
*I *1153:A3 I *D sky130_fd_sc_hd__mux4_2
*I *1387:Q O *D sky130_fd_sc_hd__dfxtp_1
*CAP
1 *1251:A0 9.11613e-05
2 *1153:A3 0.000161869
3 *1387:Q 0
4 *349:6 0.000253031
5 *1251:A0 *445:116 2.28499e-05
6 *1153:A2 *1153:A3 0.0001399
7 *1154:A2 *1251:A0 9.41642e-05
8 *1251:A1 *1251:A0 5.52238e-05
9 *1251:S *1251:A0 1.98839e-05
10 *1296:A0 *1153:A3 0.000108621
11 *1296:A0 *1251:A0 0.000143024
12 *1443:D *1153:A3 5.78571e-05
13 *1443:D *1251:A0 8.31364e-05
*RES
1 *1387:Q *349:6 13.8 
2 *349:6 *1153:A3 19.2456 
3 *349:6 *1251:A0 18.3792 
*END

*D_NET *350 0.00118738
*CONN
*I *1252:A0 I *D sky130_fd_sc_hd__mux2_1
*I *1157:A3 I *D sky130_fd_sc_hd__mux4_2
*I *1388:Q O *D sky130_fd_sc_hd__dfxtp_1
*CAP
1 *1252:A0 0.000125016
2 *1157:A3 2.53941e-05
3 *1388:Q 3.61103e-05
4 *350:8 0.000186521
5 *350:8 *1157:S1 6.34045e-05
6 *350:8 *443:92 0
7 *1159:A2 *1252:A0 0.000178847
8 *1444:D *1252:A0 0.000219908
9 *1444:D *350:8 0.000132297
10 *108:48 *1252:A0 6.70991e-05
11 *108:48 *350:8 2.8266e-06
12 *108:54 *1157:A3 0
13 *108:54 *1252:A0 9.51135e-05
14 *108:58 *1252:A0 2.59355e-05
15 *273:26 *1157:A3 2.89114e-05
*RES
1 *1388:Q *350:8 16.0772 
2 *350:8 *1157:A3 14.5426 
3 *350:8 *1252:A0 20.2109 
*END

*D_NET *351 0.00187049
*CONN
*I *1162:A3 I *D sky130_fd_sc_hd__mux4_2
*I *1253:A0 I *D sky130_fd_sc_hd__mux2_1
*I *1389:Q O *D sky130_fd_sc_hd__dfxtp_1
*CAP
1 *1162:A3 0.000143206
2 *1253:A0 0.000138527
3 *1389:Q 0
4 *351:4 0.000281733
5 *1162:A3 *1162:S1 0.000306317
6 *1253:A0 *443:80 2.37898e-05
7 *1162:A2 *1162:A3 4.05548e-05
8 *1253:A1 *1253:A0 0.00014183
9 *1253:S *1253:A0 0.00010096
10 *1349:D *1162:A3 9.9471e-06
11 *1445:D *1253:A0 0.000273897
12 *269:16 *1253:A0 4.13496e-05
13 *305:16 *1253:A0 2.44318e-05
14 *310:18 *1253:A0 0.000343947
*RES
1 *1389:Q *351:4 9.3 
2 *351:4 *1253:A0 26.8149 
3 *351:4 *1162:A3 14.0525 
*END

*D_NET *352 0.00101141
*CONN
*I *1168:A3 I *D sky130_fd_sc_hd__mux4_2
*I *1254:A0 I *D sky130_fd_sc_hd__mux2_1
*I *1390:Q O *D sky130_fd_sc_hd__dfxtp_1
*CAP
1 *1168:A3 0.000131326
2 *1254:A0 6.28562e-05
3 *1390:Q 8.80327e-05
4 *352:10 0.000282215
5 *1168:A3 *444:137 0
6 *1172:A2 *1168:A3 9.66073e-06
7 *1254:S *1168:A3 3.19337e-05
8 *1254:S *1254:A0 2.89016e-05
9 *1254:S *352:10 2.94103e-05
10 *1299:A0 *1168:A3 0.000121896
11 *1299:A0 *1254:A0 8.86413e-05
12 *1299:A1 *1168:A3 0
13 *1299:A1 *1254:A0 5.33005e-05
14 *110:91 *352:10 9.69119e-06
15 *110:97 *1168:A3 0
16 *110:97 *1254:A0 0
17 *110:97 *352:10 5.2081e-05
18 *344:12 *1168:A3 2.14658e-05
19 *344:12 *352:10 0
*RES
1 *1390:Q *352:10 20.998 
2 *352:10 *1254:A0 11.7505 
3 *352:10 *1168:A3 14.2505 
*END

*D_NET *353 0.00144058
*CONN
*I *1172:A3 I *D sky130_fd_sc_hd__mux4_2
*I *1255:A0 I *D sky130_fd_sc_hd__mux2_1
*I *1391:Q O *D sky130_fd_sc_hd__dfxtp_1
*CAP
1 *1172:A3 0.00016236
2 *1255:A0 0.000123391
3 *1391:Q 0
4 *353:4 0.000285751
5 *1172:A3 *444:137 2.65133e-05
6 *1172:A2 *1172:A3 0.000185643
7 *1172:A2 *1255:A0 2.38671e-05
8 *1294:S *1172:A3 0
9 *1294:S *1255:A0 6.4443e-05
10 *114:74 *1172:A3 0.000265447
11 *114:83 *1255:A0 3.90513e-05
12 *305:32 *1255:A0 3.34366e-05
13 *305:34 *1255:A0 0.000130583
14 *310:39 *1255:A0 8.08022e-05
15 *310:45 *1255:A0 1.92905e-05
*RES
1 *1391:Q *353:4 9.3 
2 *353:4 *1255:A0 24.0179 
3 *353:4 *1172:A3 15.3149 
*END

*D_NET *354 0.00200678
*CONN
*I *1135:A2 I *D sky130_fd_sc_hd__mux4_2
*I *1228:A0 I *D sky130_fd_sc_hd__mux2_1
*I *1368:Q O *D sky130_fd_sc_hd__dfxtp_1
*CAP
1 *1135:A2 0.000189756
2 *1228:A0 0.000302333
3 *1368:Q 8.21068e-05
4 *354:6 0.000574197
5 *1182:S *1228:A0 0
6 *1228:A1 *1135:A2 0
7 *1228:S *1228:A0 0
8 *1328:CLK *1228:A0 0
9 *1368:D *1228:A0 9.87245e-05
10 *79:150 *1135:A2 0.000297559
11 *79:165 *1135:A2 0.000142082
12 *79:176 *354:6 0
13 *290:74 *1135:A2 0.000320024
*RES
1 *1368:Q *354:6 11.1812 
2 *354:6 *1228:A0 26.8644 
3 *354:6 *1135:A2 28.5723 
*END

*D_NET *355 0.00245125
*CONN
*I *1229:A0 I *D sky130_fd_sc_hd__mux2_1
*I *1140:A2 I *D sky130_fd_sc_hd__mux4_2
*I *1369:Q O *D sky130_fd_sc_hd__dfxtp_1
*CAP
1 *1229:A0 0.000215506
2 *1140:A2 0
3 *1369:Q 0.000244255
4 *355:10 0.000459761
5 *1229:A0 *1145:S0 0.000440705
6 *1229:S *1229:A0 3.67142e-05
7 *1393:D *1229:A0 5.95099e-05
8 *68:179 *1229:A0 8.7001e-05
9 *68:179 *355:10 0
10 *92:8 *355:10 0
11 *105:221 *1229:A0 7.07598e-05
12 *257:10 *1229:A0 0.000297559
13 *257:10 *355:10 0.000399571
14 *306:31 *355:10 0.000139907
*RES
1 *1369:Q *355:10 22.5872 
2 *355:10 *1140:A2 13.8 
3 *355:10 *1229:A0 24.8892 
*END

*D_NET *356 0.00239587
*CONN
*I *1230:A0 I *D sky130_fd_sc_hd__mux2_1
*I *1145:A2 I *D sky130_fd_sc_hd__mux4_2
*I *1370:Q O *D sky130_fd_sc_hd__dfxtp_1
*CAP
1 *1230:A0 0.000188143
2 *1145:A2 0
3 *1370:Q 0.000103204
4 *356:10 0.000291348
5 *1230:A0 *1280:A0 2.44318e-05
6 *1230:A0 *444:342 2.49484e-05
7 *356:10 *444:336 0.000178656
8 *1229:S *356:10 0.000224577
9 *1230:A1 *1230:A0 0.000312215
10 *1262:S *1230:A0 0.000119135
11 *1275:S *1230:A0 4.02462e-05
12 *1276:S *356:10 7.3237e-05
13 *1280:S *1230:A0 5.76009e-05
14 *306:45 *1230:A0 0.000324889
15 *306:45 *356:10 0.000202842
16 *308:46 *356:10 5.33334e-05
17 *308:54 *1230:A0 8.89481e-05
18 *308:54 *356:10 1.41029e-05
19 *308:63 *1230:A0 7.40153e-05
*RES
1 *1370:Q *356:10 20.3594 
2 *356:10 *1145:A2 13.8 
3 *356:10 *1230:A0 25.0129 
*END

*D_NET *357 0.00133383
*CONN
*I *1152:A2 I *D sky130_fd_sc_hd__mux4_2
*I *1231:A0 I *D sky130_fd_sc_hd__mux2_1
*I *1371:Q O *D sky130_fd_sc_hd__dfxtp_1
*CAP
1 *1152:A2 4.48819e-05
2 *1231:A0 0.000139284
3 *1371:Q 0
4 *357:4 0.000184166
5 *1152:A2 *1152:S1 4.18895e-05
6 *1152:A2 *444:397 9.60939e-05
7 *1231:A0 *1152:S0 1.12323e-05
8 *1231:A0 *442:122 0.000247786
9 *1231:A0 *442:134 0.0001091
10 *1231:A1 *1231:A0 0.000153047
11 *1331:CLK *1152:A2 3.55552e-05
12 *111:197 *1231:A0 9.90431e-05
13 *257:10 *1231:A0 0.000121372
14 *301:20 *1231:A0 5.03772e-05
*RES
1 *1371:Q *357:4 9.3 
2 *357:4 *1231:A0 26.0971 
3 *357:4 *1152:A2 11.1812 
*END

*D_NET *358 0.00117363
*CONN
*I *1155:A2 I *D sky130_fd_sc_hd__mux4_2
*I *1232:A0 I *D sky130_fd_sc_hd__mux2_1
*I *1372:Q O *D sky130_fd_sc_hd__dfxtp_1
*CAP
1 *1155:A2 7.01882e-05
2 *1232:A0 0.000135465
3 *1372:Q 0
4 *358:4 0.000205653
5 *1155:A2 *1155:A3 2.89114e-05
6 *1155:A2 *366:10 1.92789e-05
7 *1279:A1 *1232:A0 0.000352212
8 *92:101 *1155:A2 9.33978e-07
9 *92:101 *1232:A0 7.07155e-06
10 *308:46 *1232:A0 0.00035392
*RES
1 *1372:Q *358:4 9.3 
2 *358:4 *1232:A0 25.6763 
3 *358:4 *1155:A2 11.1812 
*END

*D_NET *359 0.00155373
*CONN
*I *1160:A2 I *D sky130_fd_sc_hd__mux4_2
*I *1233:A0 I *D sky130_fd_sc_hd__mux2_1
*I *1373:Q O *D sky130_fd_sc_hd__dfxtp_1
*CAP
1 *1160:A2 0
2 *1233:A0 0.000141531
3 *1373:Q 7.9118e-05
4 *359:12 0.000220649
5 *359:12 *1280:A0 0
6 *359:12 *367:10 6.8646e-06
7 *1233:A1 *1233:A0 2.72859e-05
8 *1262:A0 *1233:A0 0.000312209
9 *1262:A1 *1233:A0 5.33433e-05
10 *1262:S *1233:A0 0.000224583
11 *1262:S *359:12 8.58217e-05
12 *1397:D *1233:A0 6.25878e-05
13 *1413:D *1233:A0 0.000109826
14 *109:48 *1233:A0 7.49387e-06
15 *109:59 *1233:A0 4.20528e-05
16 *301:97 *359:12 0.000180363
*RES
1 *1373:Q *359:12 22.1614 
2 *359:12 *1233:A0 26.5921 
3 *359:12 *1160:A2 9.3 
*END

*D_NET *360 0.0016484
*CONN
*I *1234:A0 I *D sky130_fd_sc_hd__mux2_1
*I *1167:A2 I *D sky130_fd_sc_hd__mux4_2
*I *1374:Q O *D sky130_fd_sc_hd__dfxtp_1
*CAP
1 *1234:A0 0.000159575
2 *1167:A2 0.000240831
3 *1374:Q 7.2119e-05
4 *360:8 0.000472524
5 *1167:A2 *1281:A0 3.2006e-05
6 *1167:A1 *1167:A2 0
7 *1281:S *1167:A2 0
8 *1281:S *1234:A0 0
9 *1281:S *360:8 0
10 *1334:CLK *1234:A0 0
11 *1374:CLK *1234:A0 0
12 *1398:D *1167:A2 0
13 *1398:D *1234:A0 0.000188743
14 *110:241 *1234:A0 0.000482607
15 *336:8 *1167:A2 0
*RES
1 *1374:Q *360:8 15.6564 
2 *360:8 *1167:A2 20.2852 
3 *360:8 *1234:A0 20.805 
*END

*D_NET *361 0.00179918
*CONN
*I *1170:A2 I *D sky130_fd_sc_hd__mux4_2
*I *1235:A0 I *D sky130_fd_sc_hd__mux2_1
*I *1375:Q O *D sky130_fd_sc_hd__dfxtp_1
*CAP
1 *1170:A2 0.000130599
2 *1235:A0 0.000181938
3 *1375:Q 5.52062e-05
4 *361:10 0.000367744
5 *1170:A2 *1170:A3 0.000144773
6 *1235:A1 *1170:A2 0.000258005
7 *1235:A1 *1235:A0 0.00053128
8 *1335:D *1170:A2 1.85861e-05
9 *1371:CLK *1170:A2 1.35046e-05
10 *1375:D *1235:A0 1.12479e-05
11 *1415:CLK *361:10 0
12 *92:61 *1235:A0 1.23747e-05
13 *92:76 *1170:A2 2.92634e-05
14 *92:76 *1235:A0 4.46608e-05
15 *277:10 *361:10 0
*RES
1 *1375:Q *361:10 19.7357 
2 *361:10 *1235:A0 16.8743 
3 *361:10 *1170:A2 15.1664 
*END

*D_NET *362 0.00107836
*CONN
*I *1135:A3 I *D sky130_fd_sc_hd__mux4_2
*I *1275:A0 I *D sky130_fd_sc_hd__mux2_1
*I *1408:Q O *D sky130_fd_sc_hd__dfxtp_1
*CAP
1 *1135:A3 0
2 *1275:A0 0.000109139
3 *1408:Q 6.91426e-05
4 *362:12 0.000178282
5 *1275:A0 *1135:S1 0.000301007
6 *362:12 *1135:S1 4.46231e-06
7 *1275:S *1275:A0 0.00010096
8 *79:150 *362:12 5.7616e-05
9 *104:157 *362:12 3.98131e-05
10 *109:34 *1275:A0 3.61629e-06
11 *109:34 *362:12 0.00010096
12 *109:44 *1275:A0 0.000113359
*RES
1 *1408:Q *362:12 21.4683 
2 *362:12 *1275:A0 15.1664 
3 *362:12 *1135:A3 9.3 
*END

*D_NET *363 0.00124844
*CONN
*I *1140:A3 I *D sky130_fd_sc_hd__mux4_2
*I *1276:A0 I *D sky130_fd_sc_hd__mux2_1
*I *1409:Q O *D sky130_fd_sc_hd__dfxtp_1
*CAP
1 *1140:A3 0.00011523
2 *1276:A0 0.000169215
3 *1409:Q 0
4 *363:4 0.000284445
5 *1276:A1 *1276:A0 1.58163e-05
6 *1276:S *1276:A0 4.45768e-06
7 *1329:CLK *1276:A0 4.00276e-06
8 *1329:D *1140:A3 1.72408e-05
9 *1369:D *1276:A0 8.32171e-05
10 *1409:D *1276:A0 0
11 *106:36 *1140:A3 0.000278819
12 *106:36 *1276:A0 0.000275999
13 *108:194 *1140:A3 0
14 *108:194 *1276:A0 0
*RES
1 *1409:Q *363:4 9.3 
2 *363:4 *1276:A0 23.8941 
3 *363:4 *1140:A3 13.4832 
*END

*D_NET *364 0.000694532
*CONN
*I *1145:A3 I *D sky130_fd_sc_hd__mux4_2
*I *1277:A0 I *D sky130_fd_sc_hd__mux2_1
*I *1410:Q O *D sky130_fd_sc_hd__dfxtp_1
*CAP
1 *1145:A3 0.000146435
2 *1277:A0 6.59893e-05
3 *1410:Q 0
4 *364:4 0.000212424
5 *1145:A3 *1145:S1 2.59355e-05
6 *1145:A3 *444:336 6.57032e-05
7 *1229:S *1145:A3 0
8 *1229:S *1277:A0 0
9 *1277:A1 *1145:A3 8.5229e-05
10 *1277:A1 *1277:A0 2.27416e-05
11 *79:49 *1277:A0 3.81416e-06
12 *301:91 *1277:A0 3.42457e-05
13 *308:54 *1277:A0 3.20153e-05
*RES
1 *1410:Q *364:4 9.3 
2 *364:4 *1277:A0 21.0475 
3 *364:4 *1145:A3 13.4832 
*END

*D_NET *365 0.00201579
*CONN
*I *1152:A3 I *D sky130_fd_sc_hd__mux4_2
*I *1278:A0 I *D sky130_fd_sc_hd__mux2_1
*I *1411:Q O *D sky130_fd_sc_hd__dfxtp_1
*CAP
1 *1152:A3 0
2 *1278:A0 0.000270249
3 *1411:Q 0.000121324
4 *365:8 0.000391573
5 *1278:A0 *1152:S1 1.40415e-05
6 *1152:A1 *1278:A0 0
7 *1152:A1 *365:8 0
8 *1260:A1 *1278:A0 0
9 *1331:CLK *1278:A0 0.00061788
10 *1395:D *365:8 0.000127673
11 *261:14 *1278:A0 0.000132297
12 *261:14 *365:8 0.000340752
13 *271:16 *1278:A0 0
*RES
1 *1411:Q *365:8 19.8644 
2 *365:8 *1278:A0 24.2208 
3 *365:8 *1152:A3 13.8 
*END

*D_NET *366 0.00122139
*CONN
*I *1155:A3 I *D sky130_fd_sc_hd__mux4_2
*I *1279:A0 I *D sky130_fd_sc_hd__mux2_1
*I *1412:Q O *D sky130_fd_sc_hd__dfxtp_1
*CAP
1 *1155:A3 9.56695e-05
2 *1279:A0 0.000233546
3 *1412:Q 9.14237e-05
4 *366:10 0.000420639
5 *1155:A2 *1155:A3 2.89114e-05
6 *1155:A2 *366:10 1.92789e-05
7 *1279:A1 *1279:A0 3.68381e-05
8 *1279:S *1279:A0 1.56e-05
9 *1330:CLK *366:10 0
10 *1396:D *1155:A3 9.33978e-07
11 *1396:D *1279:A0 2.15245e-05
12 *1396:D *366:10 0
13 *92:24 *1279:A0 0
14 *92:26 *1155:A3 0
15 *92:97 *1279:A0 0.000130436
16 *92:97 *366:10 6.7257e-05
17 *301:62 *1279:A0 5.93294e-05
*RES
1 *1412:Q *366:10 16.8198 
2 *366:10 *1279:A0 21.7456 
3 *366:10 *1155:A3 16.2505 
*END

*D_NET *367 0.00233761
*CONN
*I *1160:A3 I *D sky130_fd_sc_hd__mux4_2
*I *1280:A0 I *D sky130_fd_sc_hd__mux2_1
*I *1413:Q O *D sky130_fd_sc_hd__dfxtp_1
*CAP
1 *1160:A3 0
2 *1280:A0 0.000312079
3 *1413:Q 0.000443212
4 *367:10 0.00075529
5 *1280:A0 *1160:S1 0.000184507
6 *1280:A0 *444:342 0
7 *367:10 *1160:S1 1.02504e-05
8 *1182:A0 *367:10 0
9 *1230:A0 *1280:A0 2.44318e-05
10 *1230:A1 *1280:A0 9.60875e-05
11 *1262:S *1280:A0 0.000355341
12 *1275:S *1280:A0 5.20904e-05
13 *1280:S *1280:A0 9.74552e-05
14 *1368:CLK *367:10 0
15 *1397:D *367:10 0
16 *301:97 *367:10 0
17 *335:10 *367:10 0
18 *359:12 *1280:A0 0
19 *359:12 *367:10 6.8646e-06
*RES
1 *1413:Q *367:10 25.2357 
2 *367:10 *1280:A0 26.8694 
3 *367:10 *1160:A3 13.8 
*END

*D_NET *368 0.00133226
*CONN
*I *1281:A0 I *D sky130_fd_sc_hd__mux2_1
*I *1167:A3 I *D sky130_fd_sc_hd__mux4_2
*I *1414:Q O *D sky130_fd_sc_hd__dfxtp_1
*CAP
1 *1281:A0 0.000303209
2 *1167:A3 0
3 *1414:Q 0.000109744
4 *368:10 0.000412953
5 *368:10 *1167:S1 0.000157906
6 *1167:A1 *1281:A0 0
7 *1167:A1 *368:10 0
8 *1167:A2 *1281:A0 3.2006e-05
9 *1193:A1 *368:10 0
10 *1281:S *1281:A0 1.35046e-05
11 *1334:CLK *1281:A0 0.000129595
12 *1334:D *1281:A0 0.000173345
13 *277:30 *368:10 0
*RES
1 *1414:Q *368:10 17.6614 
2 *368:10 *1167:A3 13.8 
3 *368:10 *1281:A0 24.3694 
*END

*D_NET *369 0.00105648
*CONN
*I *1170:A3 I *D sky130_fd_sc_hd__mux4_2
*I *1282:A0 I *D sky130_fd_sc_hd__mux2_1
*I *1415:Q O *D sky130_fd_sc_hd__dfxtp_1
*CAP
1 *1170:A3 0.000175884
2 *1282:A0 0.000117574
3 *1415:Q 0
4 *369:4 0.000293458
5 *1170:A3 *444:328 5.33005e-05
6 *1170:A2 *1170:A3 0.000144773
7 *1235:A1 *1282:A0 0.000180377
8 *1335:D *1170:A3 9.9471e-06
9 *273:10 *1282:A0 0
10 *301:20 *1282:A0 5.52302e-05
11 *308:12 *1170:A3 0
12 *308:16 *1170:A3 0
13 *308:16 *1282:A0 2.59355e-05
*RES
1 *1415:Q *369:4 9.3 
2 *369:4 *1282:A0 22.1614 
3 *369:4 *1170:A3 14.3248 
*END

*D_NET *370 0.00192435
*CONN
*I *1138:A1 I *D sky130_fd_sc_hd__mux4_2
*I *1238:A1 I *D sky130_fd_sc_hd__mux2_1
*I *1376:Q O *D sky130_fd_sc_hd__dfxtp_1
*CAP
1 *1138:A1 7.87879e-05
2 *1238:A1 0.000235442
3 *1376:Q 0.000132998
4 *370:6 0.000447228
5 *1138:A1 *1266:A0 9.80173e-05
6 *1238:A1 *445:60 0.00031249
7 *1238:A1 *445:80 1.92789e-05
8 *370:6 *1266:A0 2.46006e-05
9 *370:6 *445:60 0.000133564
10 *1139:A0 *1138:A1 9.60875e-05
11 *1139:A0 *1238:A1 0
12 *1139:A0 *370:6 0
13 *1209:A1 *1138:A1 3.47641e-06
14 *1352:D *1138:A1 0.000176062
15 *1376:D *1238:A1 3.06878e-06
16 *94:18 *1238:A1 1.41029e-05
17 *104:55 *1238:A1 6.0038e-05
18 *314:10 *1138:A1 8.91057e-05
*RES
1 *1376:Q *370:6 14.0277 
2 *370:6 *1238:A1 26.3198 
3 *370:6 *1138:A1 22.7307 
*END

*D_NET *371 0.00159598
*CONN
*I *1143:A1 I *D sky130_fd_sc_hd__mux4_2
*I *1239:A1 I *D sky130_fd_sc_hd__mux2_1
*I *1377:Q O *D sky130_fd_sc_hd__dfxtp_1
*CAP
1 *1143:A1 1.1624e-05
2 *1239:A1 0.00021492
3 *1377:Q 0.00020088
4 *371:10 0.000427425
5 *1143:A1 *1143:A3 5.52238e-05
6 *371:10 *1143:A3 0
7 *1143:A0 *1239:A1 2.8266e-06
8 *1143:A0 *371:10 6.67528e-05
9 *1210:A1 *371:10 7.32955e-05
10 *1210:S *371:10 5.71472e-05
11 *1239:S *1239:A1 8.07313e-05
12 *1401:D *1239:A1 0
13 *100:42 *371:10 6.09919e-05
14 *264:16 *1143:A1 5.52238e-05
15 *303:55 *1239:A1 0.000193475
16 *303:55 *371:10 9.54627e-05
*RES
1 *1377:Q *371:10 21.6466 
2 *371:10 *1239:A1 21.7456 
3 *371:10 *1143:A1 14.5426 
*END

*D_NET *372 0.0012495
*CONN
*I *1240:A1 I *D sky130_fd_sc_hd__mux2_1
*I *1148:A1 I *D sky130_fd_sc_hd__mux4_2
*I *1378:Q O *D sky130_fd_sc_hd__dfxtp_1
*CAP
1 *1240:A1 0.00018534
2 *1148:A1 6.87715e-05
3 *1378:Q 0.000166716
4 *372:8 0.000420828
5 *1148:A1 *444:520 0
6 *1240:A1 *444:520 0
7 *372:8 *444:503 0
8 *1148:S0 *372:8 1.16144e-05
9 *1378:CLK *372:8 8.68626e-05
10 *1378:D *1240:A1 0
11 *96:16 *1240:A1 4.53889e-05
12 *106:117 *1148:A1 8.23111e-05
13 *106:117 *1240:A1 0.000116271
14 *106:123 *1148:A1 5.80706e-06
15 *114:226 *372:8 2.72967e-05
16 *114:242 *1240:A1 3.22964e-05
*RES
1 *1378:Q *372:8 18.5277 
2 *372:8 *1148:A1 16.498 
3 *372:8 *1240:A1 19.6416 
*END

*D_NET *373 0.0022221
*CONN
*I *1241:A1 I *D sky130_fd_sc_hd__mux2_1
*I *1151:A1 I *D sky130_fd_sc_hd__mux4_2
*I *1379:Q O *D sky130_fd_sc_hd__dfxtp_1
*CAP
1 *1241:A1 0.000107582
2 *1151:A1 8.44915e-05
3 *1379:Q 0.00036302
4 *373:6 0.000555093
5 *1151:A1 *405:10 5.30637e-06
6 *1089:A0 *1241:A1 5.71472e-05
7 *1090:A1 *373:6 4.01768e-05
8 *1102:D *373:6 4.88515e-05
9 *1104:CLK *373:6 0
10 *1212:A0 *1151:A1 4.00276e-06
11 *1212:A0 *373:6 2.88018e-06
12 *1212:A1 *1241:A1 0.000108111
13 *1212:A1 *373:6 6.12793e-05
14 *1241:A0 *1241:A1 0.000205264
15 *1355:D *373:6 1.58163e-05
16 *1379:CLK *1151:A1 7.32272e-05
17 *1379:CLK *373:6 3.97677e-05
18 *1379:D *1241:A1 0.000122078
19 *1379:D *373:6 0.000256582
20 *71:72 *373:6 0
21 *107:24 *1151:A1 3.80953e-06
22 *114:14 *1151:A1 9.99644e-06
23 *114:14 *1241:A1 5.7616e-05
24 *298:78 *373:6 0
25 *298:82 *1241:A1 0
*RES
1 *1379:Q *373:6 20.8595 
2 *373:6 *1151:A1 11.7753 
3 *373:6 *1241:A1 24.6862 
*END

*D_NET *374 0.0017262
*CONN
*I *1242:A1 I *D sky130_fd_sc_hd__mux2_1
*I *1158:A1 I *D sky130_fd_sc_hd__mux4_2
*I *1380:Q O *D sky130_fd_sc_hd__dfxtp_1
*CAP
1 *1242:A1 0
2 *1158:A1 0.000238142
3 *1380:Q 0.000350824
4 *374:10 0.000588966
5 *1158:A1 *406:10 5.52302e-05
6 *1158:A1 *444:63 0
7 *1158:A1 *444:67 0
8 *374:10 *1762:D 4.77762e-05
9 *1091:A0 *374:10 0
10 *1100:CLK *374:10 0
11 *1100:D *374:10 0
12 *1242:A0 *1158:A1 0.000320048
13 *1242:S *1158:A1 6.05161e-06
14 *1242:S *374:10 1.21258e-05
15 *1380:D *1158:A1 1.84708e-05
16 *1380:D *374:10 7.98913e-06
17 *1762:CLK *374:10 1.92905e-05
18 *276:16 *1158:A1 6.12902e-05
*RES
1 *1380:Q *374:10 19.6218 
2 *374:10 *1158:A1 27.0377 
3 *374:10 *1242:A1 9.3 
*END

*D_NET *375 0.00118063
*CONN
*I *1163:A1 I *D sky130_fd_sc_hd__mux4_2
*I *1243:A1 I *D sky130_fd_sc_hd__mux2_1
*I *1381:Q O *D sky130_fd_sc_hd__dfxtp_1
*CAP
1 *1163:A1 8.94198e-05
2 *1243:A1 0.000130795
3 *1381:Q 0
4 *375:4 0.000220215
5 *1163:A0 *1163:A1 5.80706e-06
6 *1381:CLK *1163:A1 0.000103981
7 *1381:CLK *1243:A1 1.65169e-05
8 *107:14 *1163:A1 0
9 *111:12 *1243:A1 0.000129868
10 *298:38 *1243:A1 2.79421e-05
11 *298:72 *1243:A1 7.02611e-05
12 *303:14 *1243:A1 0.000128154
13 *307:109 *1243:A1 3.47797e-05
14 *313:29 *1163:A1 0.000222892
*RES
1 *1381:Q *375:4 9.3 
2 *375:4 *1243:A1 23.5971 
3 *375:4 *1163:A1 22.2604 
*END

*D_NET *376 0.00164622
*CONN
*I *1244:A1 I *D sky130_fd_sc_hd__mux2_1
*I *1166:A1 I *D sky130_fd_sc_hd__mux4_2
*I *1382:Q O *D sky130_fd_sc_hd__dfxtp_1
*CAP
1 *1244:A1 0.000104592
2 *1166:A1 0.000145738
3 *1382:Q 0.000170472
4 *376:12 0.000420802
5 *1166:A1 *1144:S0 0
6 *1166:A0 *376:12 3.18206e-05
7 *1166:S0 *376:12 0
8 *1169:A0 *376:12 8.03142e-05
9 *1215:S *1166:A1 0
10 *1215:S *1244:A1 0
11 *1244:A0 *376:12 0
12 *1382:D *376:12 0.000105208
13 *100:20 *376:12 5.52302e-05
14 *101:16 *1166:A1 0.000258792
15 *101:16 *1244:A1 0.000255966
16 *111:47 *376:12 1.72894e-05
17 *263:14 *1244:A1 0
18 *263:14 *376:12 0
*RES
1 *1382:Q *376:12 23.4238 
2 *376:12 *1166:A1 14.2258 
3 *376:12 *1244:A1 12.8891 
*END

*D_NET *377 0.00126815
*CONN
*I *1173:A1 I *D sky130_fd_sc_hd__mux4_2
*I *1245:A1 I *D sky130_fd_sc_hd__mux2_1
*I *1383:Q O *D sky130_fd_sc_hd__dfxtp_1
*CAP
1 *1173:A1 0
2 *1245:A1 0.000273168
3 *1383:Q 0.000131466
4 *377:10 0.000404634
5 *1245:A1 *444:92 0.000107503
6 *1143:S0 *377:10 4.66989e-07
7 *1173:S0 *377:10 5.2081e-05
8 *1216:A1 *1245:A1 0
9 *1216:A1 *377:10 0
10 *1245:A0 *1245:A1 0
11 *1245:A0 *377:10 0
12 *1359:D *1245:A1 0
13 *1401:CLK *1245:A1 7.40249e-05
14 *1449:D *1245:A1 0
15 *100:20 *377:10 0.000140933
16 *105:40 *1245:A1 3.05446e-05
17 *114:47 *377:10 0
18 *303:40 *1245:A1 5.33334e-05
19 *321:10 *1245:A1 0
*RES
1 *1383:Q *377:10 18.3792 
2 *377:10 *1245:A1 22.4387 
3 *377:10 *1173:A1 13.8 
*END

*D_NET *378 0.0015558
*CONN
*I *1218:A1 I *D sky130_fd_sc_hd__mux2_1
*I *1137:A0 I *D sky130_fd_sc_hd__mux4_2
*I *1360:Q O *D sky130_fd_sc_hd__dfxtp_1
*CAP
1 *1218:A1 0.000133711
2 *1137:A0 0
3 *1360:Q 0.000140687
4 *378:14 0.000274399
5 *1218:A1 *1167:S0 9.90367e-05
6 *1218:A1 *442:98 0.000178663
7 *378:14 *1302:A0 6.13039e-05
8 *1218:S *1218:A1 0.000113076
9 *1284:S *1218:A1 0
10 *87:92 *378:14 0.00031119
11 *104:118 *378:14 2.27416e-05
12 *107:148 *1218:A1 4.56498e-05
13 *107:148 *378:14 5.62469e-05
14 *299:14 *1218:A1 2.26327e-05
15 *299:14 *378:14 4.6083e-05
16 *309:8 *1218:A1 5.03772e-05
*RES
1 *1360:Q *378:14 20.3099 
2 *378:14 *1137:A0 13.8 
3 *378:14 *1218:A1 19.9139 
*END

*D_NET *379 0.000886191
*CONN
*I *1219:A1 I *D sky130_fd_sc_hd__mux2_1
*I *1141:A0 I *D sky130_fd_sc_hd__mux4_2
*I *1361:Q O *D sky130_fd_sc_hd__dfxtp_1
*CAP
1 *1219:A1 1.47352e-05
2 *1141:A0 3.49608e-05
3 *1361:Q 5.6428e-05
4 *379:8 0.000106124
5 *1141:A0 *1303:A0 9.60875e-05
6 *1433:D *1141:A0 2.22891e-05
7 *305:32 *1219:A1 7.39741e-05
8 *305:32 *379:8 0.000200399
9 *310:39 *1219:A1 8.32242e-05
10 *310:39 *379:8 0.000197969
*RES
1 *1361:Q *379:8 17.3396 
2 *379:8 *1141:A0 15.1119 
3 *379:8 *1219:A1 15.2357 
*END

*D_NET *380 0.00144945
*CONN
*I *1220:A1 I *D sky130_fd_sc_hd__mux2_1
*I *1147:A0 I *D sky130_fd_sc_hd__mux4_2
*I *1362:Q O *D sky130_fd_sc_hd__dfxtp_1
*CAP
1 *1220:A1 0
2 *1147:A0 8.77764e-05
3 *1362:Q 0.000106981
4 *380:12 0.000194758
5 *1147:A0 *1304:A0 2.51343e-06
6 *1150:S0 *1147:A0 2.78608e-05
7 *1150:S0 *380:12 2.61337e-05
8 *1286:A1 *1147:A0 3.06878e-06
9 *1304:S *1147:A0 0
10 *106:207 *1147:A0 5.52238e-05
11 *106:207 *380:12 8.46829e-05
12 *106:213 *1147:A0 0.000315165
13 *267:28 *1147:A0 0.000315158
14 *267:28 *380:12 9.71197e-05
15 *273:10 *380:12 0
16 *299:43 *380:12 0.000133005
*RES
1 *1362:Q *380:12 22.7307 
2 *380:12 *1147:A0 14.5971 
3 *380:12 *1220:A1 9.3 
*END

*D_NET *381 0.00178988
*CONN
*I *1221:A1 I *D sky130_fd_sc_hd__mux2_1
*I *1150:A0 I *D sky130_fd_sc_hd__mux4_2
*I *1363:Q O *D sky130_fd_sc_hd__dfxtp_1
*CAP
1 *1221:A1 0.000262216
2 *1150:A0 0
3 *1363:Q 0.000137853
4 *381:10 0.000400069
5 *381:10 *1150:A1 2.59355e-05
6 *381:10 *444:298 6.13151e-05
7 *1221:A0 *1221:A1 5.52238e-05
8 *1339:D *1221:A1 0.000326828
9 *107:98 *1221:A1 0
10 *107:104 *1221:A1 0
11 *107:135 *1221:A1 0
12 *278:20 *1221:A1 2.78608e-05
13 *299:20 *1221:A1 4.46186e-06
14 *299:32 *1221:A1 0.000424585
15 *299:32 *381:10 4.58192e-05
16 *305:22 *1221:A1 0
17 *305:22 *381:10 0
18 *309:10 *1221:A1 0
19 *311:16 *381:10 1.77088e-05
*RES
1 *1363:Q *381:10 18.2555 
2 *381:10 *1150:A0 13.8 
3 *381:10 *1221:A1 26.2258 
*END

*D_NET *382 0.000754975
*CONN
*I *1222:A1 I *D sky130_fd_sc_hd__mux2_1
*I *1156:A0 I *D sky130_fd_sc_hd__mux4_2
*I *1364:Q O *D sky130_fd_sc_hd__dfxtp_1
*CAP
1 *1222:A1 0.000106591
2 *1156:A0 2.7419e-05
3 *1364:Q 3.51264e-05
4 *382:8 0.000169136
5 *1156:A0 *444:192 5.33005e-05
6 *1222:A1 *390:10 0.00010726
7 *382:8 *1306:A0 5.89612e-05
8 *382:8 *390:10 5.80706e-06
9 *382:8 *444:192 8.32171e-05
10 *273:10 *1222:A1 9.11365e-06
11 *273:26 *1156:A0 9.90431e-05
12 *299:45 *1222:A1 0
*RES
1 *1364:Q *382:8 15.6564 
2 *382:8 *1156:A0 15.1119 
3 *382:8 *1222:A1 17.7604 
*END

*D_NET *383 0.00150669
*CONN
*I *1223:A1 I *D sky130_fd_sc_hd__mux2_1
*I *1161:A0 I *D sky130_fd_sc_hd__mux4_2
*I *1365:Q O *D sky130_fd_sc_hd__dfxtp_1
*CAP
1 *1223:A1 5.26933e-05
2 *1161:A0 9.38976e-05
3 *1365:Q 0.00018054
4 *383:6 0.000327131
5 *1161:A0 *1161:S0 3.69047e-06
6 *1223:A0 *1161:A0 3.06878e-06
7 *1223:A0 *1223:A1 6.05161e-06
8 *1223:S *383:6 0.000109918
9 *1365:D *1161:A0 0.000170221
10 *1365:D *383:6 7.28627e-05
11 *86:159 *1223:A1 8.15095e-05
12 *109:190 *1223:A1 3.06878e-06
13 *109:190 *383:6 0
14 *164:16 *383:6 0.000186669
15 *273:10 *1223:A1 2.97756e-05
16 *278:20 *383:6 0.000185593
*RES
1 *1365:Q *383:6 17.4436 
2 *383:6 *1161:A0 12.3198 
3 *383:6 *1223:A1 20.4782 
*END

*D_NET *384 0.0012942
*CONN
*I *1165:A0 I *D sky130_fd_sc_hd__mux4_2
*I *1224:A1 I *D sky130_fd_sc_hd__mux2_1
*I *1366:Q O *D sky130_fd_sc_hd__dfxtp_1
*CAP
1 *1165:A0 0.000131036
2 *1224:A1 6.04741e-05
3 *1366:Q 0
4 *384:6 0.00019151
5 *1165:A0 *392:10 0
6 *1189:S *1165:A0 7.51399e-05
7 *1224:S *1224:A1 0.000271345
8 *1366:CLK *1224:A1 0.000273269
9 *1366:D *1165:A0 1.02504e-05
10 *1366:D *1224:A1 5.59013e-05
11 *239:14 *1165:A0 7.22594e-05
12 *239:14 *1224:A1 5.58941e-05
13 *283:22 *1165:A0 9.71197e-05
*RES
1 *1366:Q *384:6 13.8 
2 *384:6 *1224:A1 18.404 
3 *384:6 *1165:A0 18.2307 
*END

*D_NET *385 0.00133851
*CONN
*I *1171:A0 I *D sky130_fd_sc_hd__mux4_2
*I *1225:A1 I *D sky130_fd_sc_hd__mux2_1
*I *1367:Q O *D sky130_fd_sc_hd__dfxtp_1
*CAP
1 *1171:A0 0.000232693
2 *1225:A1 0.000197397
3 *1367:Q 2.29842e-05
4 *385:8 0.000453074
5 *385:8 *1165:A2 0
6 *1171:S0 *1171:A0 5.59013e-05
7 *1225:A0 *1225:A1 0.000144773
8 *1225:S *1171:A0 0
9 *1225:S *1225:A1 0
10 *1290:A1 *1171:A0 0
11 *1309:A1 *1171:A0 0
12 *1309:A1 *1225:A1 0
13 *1367:D *1225:A1 0.000155476
14 *1438:CLK *385:8 5.52238e-05
15 *111:76 *1225:A1 2.09915e-05
*RES
1 *1367:Q *385:8 14.5426 
2 *385:8 *1225:A1 20.6317 
3 *385:8 *1171:A0 20.2852 
*END

*D_NET *386 0.00155428
*CONN
*I *1302:A0 I *D sky130_fd_sc_hd__mux2_1
*I *1137:A1 I *D sky130_fd_sc_hd__mux4_2
*I *1432:Q O *D sky130_fd_sc_hd__dfxtp_1
*CAP
1 *1302:A0 0.000168389
2 *1137:A1 3.18261e-05
3 *1432:Q 0.000108809
4 *386:10 0.000309024
5 *1360:CLK *1137:A1 5.39166e-06
6 *1360:CLK *1302:A0 1.13406e-05
7 *1360:D *386:10 5.8955e-05
8 *87:92 *1302:A0 3.81416e-06
9 *104:118 *1302:A0 5.52302e-05
10 *277:30 *386:10 0
11 *299:12 *1302:A0 0.000437775
12 *299:14 *386:10 0.000302417
13 *309:8 *1137:A1 0
14 *309:10 *386:10 0
15 *378:14 *1302:A0 6.13039e-05
*RES
1 *1432:Q *386:10 23.5228 
2 *386:10 *1137:A1 10.0426 
3 *386:10 *1302:A0 15.7357 
*END

*D_NET *387 0.0013322
*CONN
*I *1303:A0 I *D sky130_fd_sc_hd__mux2_1
*I *1141:A1 I *D sky130_fd_sc_hd__mux4_2
*I *1433:Q O *D sky130_fd_sc_hd__dfxtp_1
*CAP
1 *1303:A0 0.000166887
2 *1141:A1 0
3 *1433:Q 5.8169e-05
4 *387:10 0.000225056
5 *1303:A0 *444:147 0.000137983
6 *387:10 *444:168 0
7 *1141:A0 *1303:A0 9.60875e-05
8 *1303:S *1303:A0 0.000435832
9 *1361:D *387:10 0.000105689
10 *1433:D *1303:A0 1.04113e-05
11 *105:66 *1303:A0 0
12 *311:73 *1303:A0 9.60875e-05
*RES
1 *1433:Q *387:10 20.1564 
2 *387:10 *1141:A1 9.3 
3 *387:10 *1303:A0 16.305 
*END

*D_NET *388 0.000654718
*CONN
*I *1304:A0 I *D sky130_fd_sc_hd__mux2_1
*I *1147:A1 I *D sky130_fd_sc_hd__mux4_2
*I *1434:Q O *D sky130_fd_sc_hd__dfxtp_1
*CAP
1 *1304:A0 7.62857e-05
2 *1147:A1 4.91859e-05
3 *1434:Q 3.61236e-05
4 *388:6 0.000161595
5 *1147:A1 *1147:A3 0
6 *1147:A0 *1304:A0 2.51343e-06
7 *1150:S0 *1304:A0 6.13757e-06
8 *1286:A1 *1304:A0 0.000181796
9 *1286:A1 *388:6 9.90367e-05
10 *311:47 *1147:A1 4.20435e-05
*RES
1 *1434:Q *388:6 10.6119 
2 *388:6 *1147:A1 20.1564 
3 *388:6 *1304:A0 11.7505 
*END

*D_NET *389 0.00266984
*CONN
*I *1150:A1 I *D sky130_fd_sc_hd__mux4_2
*I *1305:A0 I *D sky130_fd_sc_hd__mux2_1
*I *1435:Q O *D sky130_fd_sc_hd__dfxtp_1
*CAP
1 *1150:A1 0.000106037
2 *1305:A0 0.000298072
3 *1435:Q 0.000151502
4 *389:16 0.00055561
5 *1150:A1 *444:298 0
6 *1305:A0 *1150:A2 4.46231e-06
7 *1305:A0 *413:6 9.00795e-06
8 *1305:S *1305:A0 5.7661e-06
9 *1363:CLK *1305:A0 0.000227955
10 *1419:D *1305:A0 0
11 *1435:CLK *389:16 1.07719e-05
12 *164:16 *1305:A0 0.000103041
13 *285:12 *389:16 8.57079e-05
14 *285:26 *389:16 0.000208036
15 *299:32 *1150:A1 8.16132e-05
16 *309:10 *1150:A1 3.17148e-05
17 *309:10 *389:16 0.000179215
18 *309:24 *1150:A1 5.39629e-06
19 *309:24 *1305:A0 1.88573e-05
20 *309:24 *389:16 9.30603e-06
21 *309:101 *1150:A1 0.000128875
22 *309:101 *389:16 7.17189e-05
23 *311:16 *1150:A1 4.70078e-05
24 *311:16 *1305:A0 0.000269354
25 *311:18 *1305:A0 3.4879e-05
26 *381:10 *1150:A1 2.59355e-05
*RES
1 *1435:Q *389:16 25.602 
2 *389:16 *1305:A0 21.2555 
3 *389:16 *1150:A1 22.8792 
*END

*D_NET *390 0.00175381
*CONN
*I *1156:A1 I *D sky130_fd_sc_hd__mux4_2
*I *1306:A0 I *D sky130_fd_sc_hd__mux2_1
*I *1436:Q O *D sky130_fd_sc_hd__dfxtp_1
*CAP
1 *1156:A1 0
2 *1306:A0 0.000310066
3 *1436:Q 0.000138144
4 *390:10 0.00044821
5 *1306:A0 *444:172 1.00375e-05
6 *1306:A0 *444:192 0.000106847
7 *390:10 *444:192 0
8 *1222:A1 *390:10 0.00010726
9 *1306:A1 *1306:A0 5.52302e-05
10 *1342:D *1306:A0 8.32242e-05
11 *1364:D *1306:A0 4.89268e-05
12 *1364:D *390:10 5.90443e-06
13 *78:10 *1306:A0 2.09915e-05
14 *108:70 *390:10 6.28241e-05
15 *273:10 *390:10 0.000181085
16 *283:8 *1306:A0 0
17 *293:59 *1306:A0 0
18 *311:56 *1306:A0 2.95641e-05
19 *311:73 *1306:A0 8.07313e-05
20 *382:8 *1306:A0 5.89612e-05
21 *382:8 *390:10 5.80706e-06
*RES
1 *1436:Q *390:10 19.7901 
2 *390:10 *1306:A0 25.9783 
3 *390:10 *1156:A1 13.8 
*END

*D_NET *391 0.00139148
*CONN
*I *1161:A1 I *D sky130_fd_sc_hd__mux4_2
*I *1307:A0 I *D sky130_fd_sc_hd__mux2_1
*I *1437:Q O *D sky130_fd_sc_hd__dfxtp_1
*CAP
1 *1161:A1 5.67087e-05
2 *1307:A0 0.000254487
3 *1437:Q 0.000102444
4 *391:10 0.00041364
5 *1307:A0 *1161:A2 5.33005e-05
6 *1307:A0 *1161:S1 5.52238e-05
7 *1307:A0 *1193:A0 0
8 *391:10 *1161:S0 0
9 *1289:A1 *391:10 0.000157899
10 *1307:A1 *1307:A0 0.000229181
11 *1341:D *1307:A0 1.1979e-05
12 *109:194 *1161:A1 0
13 *109:196 *391:10 5.66157e-05
14 *283:8 *391:10 0
*RES
1 *1437:Q *391:10 21.8396 
2 *391:10 *1307:A0 17.4436 
3 *391:10 *1161:A1 10.6366 
*END

*D_NET *392 0.00279917
*CONN
*I *1308:A0 I *D sky130_fd_sc_hd__mux2_1
*I *1165:A1 I *D sky130_fd_sc_hd__mux4_2
*I *1438:Q O *D sky130_fd_sc_hd__dfxtp_1
*CAP
1 *1308:A0 0.000969364
2 *1165:A1 3.23196e-05
3 *1438:Q 0.000193768
4 *392:10 0.00119545
5 *1165:A0 *392:10 0
6 *1189:S *1308:A0 4.65158e-06
7 *1189:S *392:10 1.0334e-05
8 *1194:A1 *1308:A0 1.17396e-05
9 *1194:A1 *392:10 0.00027338
10 *1308:S *1308:A0 5.7836e-06
11 *110:46 *392:10 1.92905e-05
12 *239:14 *392:10 5.71472e-05
13 *283:22 *1165:A1 2.59355e-05
*RES
1 *1438:Q *392:10 20.607 
2 *392:10 *1165:A1 14.5426 
3 *392:10 *1308:A0 23.3254 
*END

*D_NET *393 0.00102579
*CONN
*I *1309:A0 I *D sky130_fd_sc_hd__mux2_1
*I *1171:A1 I *D sky130_fd_sc_hd__mux4_2
*I *1439:Q O *D sky130_fd_sc_hd__dfxtp_1
*CAP
1 *1309:A0 6.40073e-05
2 *1171:A1 0.000135733
3 *1439:Q 2.69437e-05
4 *393:8 0.000226683
5 *1171:A1 *1171:S1 9.80173e-05
6 *1171:A1 *425:8 0
7 *1290:A1 *1171:A1 9.60939e-05
8 *1306:A1 *393:8 0
9 *1309:A1 *1171:A1 0.000226021
10 *1309:A1 *1309:A0 0.000133012
11 *1342:CLK *393:8 1.92789e-05
12 *1439:D *1171:A1 0
13 *1439:D *1309:A0 0
14 *114:124 *1309:A0 0
15 *309:61 *1309:A0 0
*RES
1 *1439:Q *393:8 14.5426 
2 *393:8 *1171:A1 19.0723 
3 *393:8 *1309:A0 16.498 
*END

*D_NET *394 0.000428495
*CONN
*I *1138:A2 I *D sky130_fd_sc_hd__mux4_2
*I *1320:A1 I *D sky130_fd_sc_hd__mux2_1
*I *1448:Q O *D sky130_fd_sc_hd__dfxtp_1
*CAP
1 *1138:A2 1.90062e-05
2 *1320:A1 3.95095e-05
3 *1448:Q 1.93237e-05
4 *394:6 7.78394e-05
5 *1138:A2 *444:40 2.65105e-05
6 *1320:A1 *1138:S0 2.18443e-05
7 *394:6 *444:40 1.40415e-05
8 *1139:A0 *1138:A2 7.96621e-05
9 *1139:A0 *394:6 5.33005e-05
10 *104:55 *1320:A1 7.74578e-05
*RES
1 *1448:Q *394:6 10.0426 
2 *394:6 *1320:A1 19.7357 
3 *394:6 *1138:A2 10.6119 
*END

*D_NET *395 0.00108451
*CONN
*I *1143:A2 I *D sky130_fd_sc_hd__mux4_2
*I *1321:A1 I *D sky130_fd_sc_hd__mux2_1
*I *1449:Q O *D sky130_fd_sc_hd__dfxtp_1
*CAP
1 *1143:A2 9.31268e-05
2 *1321:A1 5.94946e-05
3 *1449:Q 0.000215454
4 *395:12 0.000368076
5 *1143:A2 *1143:S1 5.52238e-05
6 *1321:A1 *1143:S1 0
7 *1321:A0 *395:12 0
8 *1321:S *1321:A1 5.71472e-05
9 *1377:D *1143:A2 0
10 *1377:D *395:12 5.71472e-05
11 *1401:CLK *1321:A1 7.03295e-05
12 *1401:CLK *395:12 6.78055e-06
13 *1401:D *395:12 0
14 *264:16 *1143:A2 9.25014e-06
15 *303:51 *395:12 9.24825e-05
*RES
1 *1449:Q *395:12 20.1119 
2 *395:12 *1321:A1 16.2505 
3 *395:12 *1143:A2 16.8198 
*END

*D_NET *396 0.000452038
*CONN
*I *1148:A2 I *D sky130_fd_sc_hd__mux4_2
*I *1322:A1 I *D sky130_fd_sc_hd__mux2_1
*I *1450:Q O *D sky130_fd_sc_hd__dfxtp_1
*CAP
1 *1148:A2 3.30986e-05
2 *1322:A1 5.90688e-05
3 *1450:Q 0
4 *396:4 9.21674e-05
5 *1268:A1 *1322:A1 1.19309e-05
6 *1322:A0 *1148:A2 5.06983e-05
7 *1402:CLK *1322:A1 6.22185e-05
8 *106:165 *1322:A1 0
9 *268:22 *1148:A2 0.000142856
*RES
1 *1450:Q *396:4 9.3 
2 *396:4 *1322:A1 20.1564 
3 *396:4 *1148:A2 11.1812 
*END

*D_NET *397 0.00156032
*CONN
*I *1151:A2 I *D sky130_fd_sc_hd__mux4_2
*I *1323:A1 I *D sky130_fd_sc_hd__mux2_1
*I *1451:Q O *D sky130_fd_sc_hd__dfxtp_1
*CAP
1 *1151:A2 0
2 *1323:A1 8.7362e-05
3 *1451:Q 0.000179466
4 *397:12 0.000266828
5 *397:12 *405:10 4.00679e-05
6 *1270:S *397:12 0.000275087
7 *1379:CLK *1323:A1 0.000147347
8 *1379:CLK *397:12 0.000129913
9 *1403:D *1323:A1 4.18378e-05
10 *91:90 *1323:A1 9.90431e-05
11 *107:24 *1323:A1 9.33978e-07
12 *107:24 *397:12 7.33786e-06
13 *108:16 *397:12 0.000275087
14 *114:14 *397:12 1.00073e-05
*RES
1 *1451:Q *397:12 26.6911 
2 *397:12 *1323:A1 12.8891 
3 *397:12 *1151:A2 9.3 
*END

*D_NET *398 0.00124668
*CONN
*I *1158:A2 I *D sky130_fd_sc_hd__mux4_2
*I *1324:A1 I *D sky130_fd_sc_hd__mux2_1
*I *1452:Q O *D sky130_fd_sc_hd__dfxtp_1
*CAP
1 *1158:A2 0
2 *1324:A1 9.47602e-05
3 *1452:Q 0.000279889
4 *398:12 0.000374649
5 *398:12 *406:10 0
6 *398:12 *444:67 0
7 *1173:S0 *398:12 9.77592e-05
8 *1380:CLK *1324:A1 0.000157732
9 *1404:CLK *1324:A1 0
10 *1404:D *1324:A1 1.28139e-05
11 *1404:D *398:12 0.000103974
12 *95:10 *398:12 0
13 *108:32 *1324:A1 4.88637e-05
14 *114:26 *1324:A1 2.79421e-05
15 *114:26 *398:12 3.90513e-05
16 *276:16 *398:12 9.25014e-06
*RES
1 *1452:Q *398:12 27.2604 
2 *398:12 *1324:A1 12.8891 
3 *398:12 *1158:A2 9.3 
*END

*D_NET *399 0.00283761
*CONN
*I *1163:A2 I *D sky130_fd_sc_hd__mux4_2
*I *1325:A1 I *D sky130_fd_sc_hd__mux2_1
*I *1453:Q O *D sky130_fd_sc_hd__dfxtp_1
*CAP
1 *1163:A2 6.17582e-05
2 *1325:A1 0.000347069
3 *1453:Q 0
4 *399:4 0.000408827
5 *1092:A0 *1163:A2 9.40156e-05
6 *1092:A0 *1325:A1 3.67257e-05
7 *1164:A0 *1325:A1 0.000141567
8 *1311:S *1325:A1 1.98839e-05
9 *1405:CLK *1325:A1 9.60939e-05
10 *1453:D *1325:A1 2.39173e-05
11 *81:40 *1325:A1 0.000266196
12 *99:14 *1325:A1 1.57414e-05
13 *104:94 *1325:A1 0.000263632
14 *109:131 *1325:A1 0.00061109
15 *280:16 *1163:A2 0.000270326
16 *280:16 *1325:A1 0.00018077
*RES
1 *1453:Q *399:4 9.3 
2 *399:4 *1325:A1 26.1813 
3 *399:4 *1163:A2 12.8891 
*END

*D_NET *400 0.00196943
*CONN
*I *1166:A2 I *D sky130_fd_sc_hd__mux4_2
*I *1326:A1 I *D sky130_fd_sc_hd__mux2_1
*I *1454:Q O *D sky130_fd_sc_hd__dfxtp_1
*CAP
1 *1166:A2 0.000302045
2 *1326:A1 0.000128044
3 *1454:Q 0
4 *400:6 0.000430089
5 *1166:A2 *1144:S0 0
6 *1166:A2 *1166:A3 1.76039e-05
7 *1166:A2 *1166:S1 0.000270309
8 *1326:A1 *1166:S1 4.58192e-05
9 *1326:A1 *444:127 1.92789e-05
10 *1200:S *1166:A2 0.000138917
11 *1200:S *1326:A1 3.20153e-05
12 *1294:S *1326:A1 2.88018e-06
13 *1326:S *1326:A1 0.000360894
14 *1455:CLK *1326:A1 0.000128342
15 *101:16 *1166:A2 9.31893e-05
*RES
1 *1454:Q *400:6 13.8 
2 *400:6 *1326:A1 21.102 
3 *400:6 *1166:A2 25.1614 
*END

*D_NET *401 0.00168374
*CONN
*I *1327:A1 I *D sky130_fd_sc_hd__mux2_1
*I *1173:A2 I *D sky130_fd_sc_hd__mux4_2
*I *1455:Q O *D sky130_fd_sc_hd__dfxtp_1
*CAP
1 *1327:A1 0.000141153
2 *1173:A2 2.94119e-05
3 *1455:Q 4.47803e-05
4 *401:10 0.000215345
5 *1173:A2 *409:10 0.000139913
6 *401:10 *409:10 1.92905e-05
7 *1321:S *401:10 5.71472e-05
8 *1383:D *1327:A1 0.000132452
9 *1383:D *401:10 5.43491e-05
10 *1407:CLK *1327:A1 0.000121015
11 *89:12 *1327:A1 3.17148e-05
12 *89:14 *1327:A1 0.000215063
13 *89:14 *401:10 0.000107404
14 *100:20 *1327:A1 1.21258e-05
15 *114:47 *1173:A2 0.000139913
16 *288:18 *1327:A1 0.00022266
*RES
1 *1455:Q *401:10 16.399 
2 *401:10 *1173:A2 15.6812 
3 *401:10 *1327:A1 21.201 
*END

*D_NET *402 0.00207739
*CONN
*I *1266:A0 I *D sky130_fd_sc_hd__mux2_1
*I *1138:A3 I *D sky130_fd_sc_hd__mux4_2
*I *1400:Q O *D sky130_fd_sc_hd__dfxtp_1
*CAP
1 *1266:A0 0.000329701
2 *1138:A3 8.63078e-05
3 *1400:Q 0.00015672
4 *402:12 0.000572728
5 *1138:A3 *1138:S1 9.87617e-05
6 *1138:A3 *442:33 3.80953e-06
7 *1138:A3 *444:40 3.54303e-05
8 *1266:A0 *442:33 2.40748e-05
9 *1266:A0 *445:60 5.19842e-06
10 *402:12 *444:40 0.000100142
11 *1138:A1 *1266:A0 9.80173e-05
12 *1139:A0 *1138:A3 4.10926e-05
13 *1139:A0 *1266:A0 0.000142487
14 *1209:A1 *1266:A0 3.22325e-05
15 *1266:S *1266:A0 0
16 *1352:D *402:12 0.000136056
17 *1400:D *1266:A0 2.8266e-06
18 *1400:D *402:12 2.27416e-05
19 *1541:CLK *1266:A0 1.33343e-05
20 *81:20 *402:12 0
21 *104:30 *1266:A0 7.70092e-05
22 *114:14 *402:12 1.92905e-05
23 *314:10 *1266:A0 5.48248e-05
24 *370:6 *1266:A0 2.46006e-05
*RES
1 *1400:Q *402:12 23.8446 
2 *402:12 *1138:A3 12.3446 
3 *402:12 *1266:A0 28.0773 
*END

*D_NET *403 0.00125865
*CONN
*I *1267:A0 I *D sky130_fd_sc_hd__mux2_1
*I *1143:A3 I *D sky130_fd_sc_hd__mux4_2
*I *1401:Q O *D sky130_fd_sc_hd__dfxtp_1
*CAP
1 *1267:A0 6.63852e-05
2 *1143:A3 0.000267102
3 *1401:Q 6.77106e-05
4 *403:10 0.000401198
5 *1143:A3 *1143:S1 5.71472e-05
6 *1143:A0 *403:10 0
7 *1143:A1 *1143:A3 5.52238e-05
8 *1210:S *1267:A0 0
9 *1267:S *1267:A0 5.71472e-05
10 *1401:D *1143:A3 0
11 *1401:D *403:10 8.49318e-05
12 *100:42 *1143:A3 0
13 *105:24 *403:10 0
14 *105:30 *403:10 0
15 *264:16 *1143:A3 0.000201803
16 *371:10 *1143:A3 0
*RES
1 *1401:Q *403:10 20.5772 
2 *403:10 *1143:A3 17.4436 
3 *403:10 *1267:A0 11.1812 
*END

*D_NET *404 0.00168126
*CONN
*I *1148:A3 I *D sky130_fd_sc_hd__mux4_2
*I *1268:A0 I *D sky130_fd_sc_hd__mux2_1
*I *1402:Q O *D sky130_fd_sc_hd__dfxtp_1
*CAP
1 *1148:A3 0.000282496
2 *1268:A0 7.13908e-05
3 *1402:Q 0.000200426
4 *404:10 0.000554312
5 *1148:A3 *1144:S1 0
6 *1148:A3 *444:503 0
7 *1268:A1 *1148:A3 6.79735e-05
8 *1268:S *1268:A0 5.33433e-05
9 *1322:S *1148:A3 0.000201135
10 *106:123 *1148:A3 0
11 *106:165 *1148:A3 5.7616e-05
12 *108:40 *1268:A0 4.17509e-05
13 *108:40 *404:10 0.000144762
14 *261:24 *1268:A0 0
15 *261:24 *404:10 0
16 *307:34 *1268:A0 6.05161e-06
*RES
1 *1402:Q *404:10 16.206 
2 *404:10 *1268:A0 11.7505 
3 *404:10 *1148:A3 26.8892 
*END

*D_NET *405 0.0014587
*CONN
*I *1269:A0 I *D sky130_fd_sc_hd__mux2_1
*I *1151:A3 I *D sky130_fd_sc_hd__mux4_2
*I *1403:Q O *D sky130_fd_sc_hd__dfxtp_1
*CAP
1 *1269:A0 0.000140148
2 *1151:A3 0
3 *1403:Q 0.000112249
4 *405:10 0.000252397
5 *1269:A0 *444:59 0.00024409
6 *1269:A0 *444:61 1.02504e-05
7 *405:10 *444:61 0.000105696
8 *1151:A1 *405:10 5.30637e-06
9 *1151:S0 *1269:A0 4.73656e-05
10 *1151:S0 *405:10 0.000107404
11 *1379:CLK *405:10 5.94896e-06
12 *107:18 *1269:A0 0.000148277
13 *107:24 *1269:A0 1.88866e-05
14 *114:14 *405:10 0.000220608
15 *397:12 *405:10 4.00679e-05
*RES
1 *1403:Q *405:10 18.6763 
2 *405:10 *1151:A3 13.8 
3 *405:10 *1269:A0 21.201 
*END

*D_NET *406 0.00154063
*CONN
*I *1270:A0 I *D sky130_fd_sc_hd__mux2_1
*I *1158:A3 I *D sky130_fd_sc_hd__mux4_2
*I *1404:Q O *D sky130_fd_sc_hd__dfxtp_1
*CAP
1 *1270:A0 8.6722e-05
2 *1158:A3 0
3 *1404:Q 0.000136433
4 *406:10 0.000223155
5 *1270:A0 *444:61 1.1594e-05
6 *1270:A0 *444:63 0.000349201
7 *1270:A0 *444:67 1.02504e-05
8 *406:10 *444:67 0.000105696
9 *1158:A1 *406:10 5.52302e-05
10 *114:26 *1270:A0 0.000360795
11 *114:26 *406:10 0.000105696
12 *276:16 *406:10 9.58593e-05
13 *398:12 *406:10 0
*RES
1 *1404:Q *406:10 19.2456 
2 *406:10 *1158:A3 13.8 
3 *406:10 *1270:A0 20.2852 
*END

*D_NET *407 0.00223524
*CONN
*I *1163:A3 I *D sky130_fd_sc_hd__mux4_2
*I *1271:A0 I *D sky130_fd_sc_hd__mux2_1
*I *1405:Q O *D sky130_fd_sc_hd__dfxtp_1
*CAP
1 *1163:A3 0.000386483
2 *1271:A0 0.000138674
3 *1405:Q 5.71328e-05
4 *407:8 0.00058229
5 *1163:A3 *443:34 5.73303e-05
6 *1202:S *1163:A3 1.08359e-05
7 *1202:S *1271:A0 8.25644e-05
8 *1202:S *407:8 5.33005e-05
9 *1381:CLK *407:8 2.15245e-05
10 *1381:D *1163:A3 8.32242e-05
11 *1381:D *1271:A0 8.32171e-05
12 *109:115 *1163:A3 0
13 *109:115 *1271:A0 0
14 *109:117 *1271:A0 0.00026737
15 *109:131 *1271:A0 5.71472e-05
16 *111:12 *1163:A3 4.15161e-05
17 *303:14 *1163:A3 4.32309e-05
18 *307:100 *1271:A0 7.77652e-05
19 *307:109 *1271:A0 8.40933e-05
20 *307:109 *407:8 3.22964e-05
21 *313:25 *1163:A3 7.52405e-05
*RES
1 *1405:Q *407:8 15.6812 
2 *407:8 *1271:A0 20.6565 
3 *407:8 *1163:A3 25.4339 
*END

*D_NET *408 0.00154193
*CONN
*I *1272:A0 I *D sky130_fd_sc_hd__mux2_1
*I *1166:A3 I *D sky130_fd_sc_hd__mux4_2
*I *1406:Q O *D sky130_fd_sc_hd__dfxtp_1
*CAP
1 *1272:A0 3.30737e-05
2 *1166:A3 0.000209172
3 *1406:Q 2.39308e-05
4 *408:8 0.000266176
5 *1166:A3 *1144:S0 0.000315152
6 *1144:A2 *408:8 9.90431e-05
7 *1166:A0 *1166:A3 0
8 *1166:A2 *1166:A3 1.76039e-05
9 *1166:S0 *1166:A3 0
10 *1200:S *1166:A3 0.000202835
11 *1200:S *1272:A0 0
12 *1244:A0 *1166:A3 0
13 *88:110 *1166:A3 0.000104974
14 *88:110 *1272:A0 7.46814e-05
15 *110:20 *408:8 1.32552e-05
16 *110:26 *408:8 1.40415e-05
17 *110:157 *1166:A3 0.000167988
*RES
1 *1406:Q *408:8 15.1119 
2 *408:8 *1166:A3 32.3545 
3 *408:8 *1272:A0 15.2357 
*END

*D_NET *409 0.00211138
*CONN
*I *1173:A3 I *D sky130_fd_sc_hd__mux4_2
*I *1273:A0 I *D sky130_fd_sc_hd__mux2_1
*I *1407:Q O *D sky130_fd_sc_hd__dfxtp_1
*CAP
1 *1173:A3 6.08939e-05
2 *1273:A0 0.000264598
3 *1407:Q 9.28159e-05
4 *409:10 0.000418308
5 *1094:A0 *1273:A0 0
6 *1144:A0 *1273:A0 0.000181796
7 *1173:A2 *409:10 0.000139913
8 *1245:A0 *1173:A3 2.21972e-05
9 *1245:A0 *1273:A0 0.000104345
10 *1245:A0 *409:10 7.80714e-06
11 *1273:A1 *1273:A0 5.33005e-05
12 *1321:S *409:10 4.4787e-05
13 *1383:D *1273:A0 4.00074e-05
14 *1383:D *409:10 2.07158e-05
15 *1407:D *1273:A0 0.000471384
16 *111:18 *1273:A0 7.79781e-06
17 *111:20 *1273:A0 0.000120073
18 *114:47 *409:10 4.13496e-05
19 *313:64 *1273:A0 0
20 *401:10 *409:10 1.92905e-05
*RES
1 *1407:Q *409:10 17.6243 
2 *409:10 *1273:A0 27.154 
3 *409:10 *1173:A3 15.4956 
*END

*D_NET *410 0.00136097
*CONN
*I *1284:A0 I *D sky130_fd_sc_hd__mux2_1
*I *1137:A2 I *D sky130_fd_sc_hd__mux4_2
*I *1416:Q O *D sky130_fd_sc_hd__dfxtp_1
*CAP
1 *1284:A0 0.000167852
2 *1137:A2 0
3 *1416:Q 4.05244e-05
4 *410:10 0.000208376
5 *1284:A0 *1137:S1 2.04825e-05
6 *1284:A0 *1167:S0 0
7 *1284:A0 *1188:A0 0
8 *1284:A0 *444:304 1.27529e-05
9 *1284:A0 *444:310 0.000202713
10 *410:10 *1137:A3 1.07719e-05
11 *410:10 *444:304 4.81157e-05
12 *1188:A1 *1284:A0 2.51343e-06
13 *1263:S *1284:A0 1.55885e-05
14 *1284:A1 *1284:A0 9.71197e-05
15 *277:30 *410:10 2.89016e-05
16 *285:12 *1284:A0 0.000422035
17 *285:12 *410:10 8.32242e-05
*RES
1 *1416:Q *410:10 15.9782 
2 *410:10 *1137:A2 13.8 
3 *410:10 *1284:A0 23.008 
*END

*D_NET *411 0.00164505
*CONN
*I *1141:A2 I *D sky130_fd_sc_hd__mux4_2
*I *1285:A0 I *D sky130_fd_sc_hd__mux2_1
*I *1417:Q O *D sky130_fd_sc_hd__dfxtp_1
*CAP
1 *1141:A2 6.79726e-05
2 *1285:A0 0.000223164
3 *1417:Q 0
4 *411:4 0.000291136
5 *1141:A2 *444:168 0.000158761
6 *1285:A0 *444:168 6.62983e-05
7 *1117:A *1285:A0 0
8 *1189:S *1285:A0 0.000155476
9 *1285:S *1285:A0 3.34366e-05
10 *1417:D *1285:A0 0
11 *85:20 *1285:A0 7.07676e-05
12 *299:45 *1285:A0 0
13 *311:73 *1141:A2 0.000392392
14 *311:73 *1285:A0 0.000185643
*RES
1 *1417:Q *411:4 9.3 
2 *411:4 *1285:A0 26.8149 
3 *411:4 *1141:A2 14.5971 
*END

*D_NET *412 0.000852831
*CONN
*I *1147:A2 I *D sky130_fd_sc_hd__mux4_2
*I *1286:A0 I *D sky130_fd_sc_hd__mux2_1
*I *1418:Q O *D sky130_fd_sc_hd__dfxtp_1
*CAP
1 *1147:A2 6.00358e-05
2 *1286:A0 0.000215667
3 *1418:Q 0
4 *412:4 0.000275703
5 *1286:A1 *1147:A2 3.88139e-05
6 *1286:A1 *1286:A0 0.000131601
7 *1362:CLK *1147:A2 0
8 *1362:CLK *1286:A0 1.02504e-05
9 *1434:CLK *1286:A0 3.81416e-06
10 *86:58 *1286:A0 8.49318e-05
11 *309:47 *1286:A0 3.20153e-05
*RES
1 *1418:Q *412:4 9.3 
2 *412:4 *1286:A0 26.1713 
3 *412:4 *1147:A2 11.1812 
*END

*D_NET *413 0.000748339
*CONN
*I *1150:A2 I *D sky130_fd_sc_hd__mux4_2
*I *1287:A0 I *D sky130_fd_sc_hd__mux2_1
*I *1419:Q O *D sky130_fd_sc_hd__dfxtp_1
*CAP
1 *1150:A2 1.85698e-05
2 *1287:A0 0.000232614
3 *1419:Q 3.94567e-05
4 *413:6 0.00029064
5 *1150:S0 *1287:A0 0
6 *1285:S *1287:A0 1.41706e-05
7 *1305:A0 *1150:A2 4.46231e-06
8 *1305:A0 *413:6 9.00795e-06
9 *1419:D *1287:A0 0
10 *164:16 *1287:A0 5.7616e-05
11 *164:16 *413:6 2.51343e-06
12 *285:26 *1287:A0 0
13 *309:24 *1150:A2 2.89114e-05
14 *309:24 *413:6 5.03772e-05
*RES
1 *1419:Q *413:6 10.6119 
2 *413:6 *1287:A0 24.3644 
3 *413:6 *1150:A2 10.0426 
*END

*D_NET *414 0.00160531
*CONN
*I *1156:A2 I *D sky130_fd_sc_hd__mux4_2
*I *1288:A0 I *D sky130_fd_sc_hd__mux2_1
*I *1420:Q O *D sky130_fd_sc_hd__dfxtp_1
*CAP
1 *1156:A2 0.0002042
2 *1288:A0 0.00019149
3 *1420:Q 0
4 *414:4 0.000395691
5 *1156:A2 *1156:A3 0.000328413
6 *1156:A2 *1192:A0 0
7 *1288:A1 *1288:A0 5.71472e-05
8 *1288:S *1288:A0 2.44318e-05
9 *1306:A1 *1288:A0 1.03968e-05
10 *1364:CLK *1156:A2 0.000112604
11 *1364:D *1156:A2 2.85826e-05
12 *1436:D *1288:A0 0
13 *78:10 *1288:A0 0.000220633
14 *78:23 *1288:A0 3.17163e-05
15 *108:74 *1288:A0 0
*RES
1 *1420:Q *414:4 9.3 
2 *414:4 *1288:A0 25.404 
3 *414:4 *1156:A2 17.3446 
*END

*D_NET *415 0.0017624
*CONN
*I *1289:A0 I *D sky130_fd_sc_hd__mux2_1
*I *1161:A2 I *D sky130_fd_sc_hd__mux4_2
*I *1421:Q O *D sky130_fd_sc_hd__dfxtp_1
*CAP
1 *1289:A0 0.000155087
2 *1161:A2 0.000122844
3 *1421:Q 3.32527e-06
4 *415:8 0.000281257
5 *1161:A2 *1161:A3 4.46186e-06
6 *1161:A2 *444:216 0.000114123
7 *1289:A0 *444:216 0.000173272
8 *1190:S *1289:A0 3.06878e-06
9 *1307:A0 *1161:A2 5.33005e-05
10 *1307:A1 *1161:A2 5.33005e-05
11 *1338:D *1289:A0 2.40379e-05
12 *1419:CLK *1289:A0 0.000137983
13 *1421:D *1289:A0 0.000157899
14 *293:32 *1161:A2 0.000351972
15 *293:32 *1289:A0 0.000103773
16 *293:32 *415:8 2.26973e-05
*RES
1 *1421:Q *415:8 14.1837 
2 *415:8 *1161:A2 20.8174 
3 *415:8 *1289:A0 21.857 
*END

*D_NET *416 0.00237398
*CONN
*I *1165:A2 I *D sky130_fd_sc_hd__mux4_2
*I *1290:A0 I *D sky130_fd_sc_hd__mux2_1
*I *1422:Q O *D sky130_fd_sc_hd__dfxtp_1
*CAP
1 *1165:A2 0.00029338
2 *1290:A0 0.000463483
3 *1422:Q 0
4 *416:4 0.000756863
5 *1165:A2 *1171:S1 0.000142856
6 *1290:A0 *1171:A2 0
7 *1290:A0 *1171:A3 0
8 *1290:A0 *1171:S1 0
9 *1290:A0 *1195:A0 5.51408e-05
10 *1165:S0 *1165:A2 0
11 *1171:S0 *1165:A2 9.0629e-06
12 *1195:S *1290:A0 4.23086e-05
13 *1225:S *1165:A2 9.25014e-06
14 *1290:A1 *1165:A2 0.000184052
15 *1290:A1 *1290:A0 6.05161e-06
16 *1291:S *1290:A0 0.000129336
17 *1422:D *1290:A0 0.000130261
18 *1438:CLK *1165:A2 0
19 *1438:CLK *1290:A0 0
20 *1439:D *1290:A0 5.39166e-06
21 *78:50 *1290:A0 3.69047e-06
22 *283:22 *1165:A2 0.000142856
23 *299:49 *1165:A2 0
24 *309:61 *1290:A0 0
25 *385:8 *1165:A2 0
*RES
1 *1422:Q *416:4 9.3 
2 *416:4 *1290:A0 30.8743 
3 *416:4 *1165:A2 28.0278 
*END

*D_NET *417 0.00162973
*CONN
*I *1171:A2 I *D sky130_fd_sc_hd__mux4_2
*I *1291:A0 I *D sky130_fd_sc_hd__mux2_1
*I *1423:Q O *D sky130_fd_sc_hd__dfxtp_1
*CAP
1 *1171:A2 0.000190477
2 *1291:A0 0.00010696
3 *1423:Q 0.000176075
4 *417:10 0.000473512
5 *1171:A2 *1195:A0 0.000279953
6 *1291:A0 *1195:A0 0.00011009
7 *1195:A1 *1291:A0 2.27416e-05
8 *1225:A0 *417:10 0
9 *1290:A0 *1171:A2 0
10 *1291:S *417:10 0
11 *1309:A1 *1171:A2 0
12 *1309:A1 *417:10 0
13 *1422:D *1171:A2 0
14 *1438:CLK *1291:A0 0.000186662
15 *78:58 *1171:A2 0
16 *78:58 *1291:A0 4.59075e-05
17 *78:58 *417:10 0
18 *111:80 *1291:A0 8.81471e-06
19 *111:80 *417:10 1.92905e-05
20 *309:61 *1171:A2 9.25014e-06
*RES
1 *1423:Q *417:10 18.0822 
2 *417:10 *1291:A0 19.0971 
3 *417:10 *1171:A2 20.2852 
*END

*D_NET *418 0.00110156
*CONN
*I *1188:A0 I *D sky130_fd_sc_hd__mux2_1
*I *1137:A3 I *D sky130_fd_sc_hd__mux4_2
*I *1336:Q O *D sky130_fd_sc_hd__dfxtp_1
*CAP
1 *1188:A0 0.000101434
2 *1137:A3 0.000205214
3 *1336:Q 0
4 *418:4 0.000306647
5 *1137:A3 *1137:S1 0.000177815
6 *1137:A3 *1167:S0 0
7 *1188:A0 *1167:S0 9.60939e-05
8 *1188:A0 *444:310 0.000155469
9 *1284:A0 *1188:A0 0
10 *1336:D *1188:A0 4.81157e-05
11 *1416:D *1188:A0 0
12 *277:30 *1137:A3 0
13 *410:10 *1137:A3 1.07719e-05
*RES
1 *1336:Q *418:4 9.3 
2 *418:4 *1137:A3 14.7456 
3 *418:4 *1188:A0 22.3099 
*END

*D_NET *419 0.00128743
*CONN
*I *1141:A3 I *D sky130_fd_sc_hd__mux4_2
*I *1189:A0 I *D sky130_fd_sc_hd__mux2_1
*I *1337:Q O *D sky130_fd_sc_hd__dfxtp_1
*CAP
1 *1141:A3 0.000155033
2 *1189:A0 0.000166159
3 *1337:Q 1.7778e-05
4 *419:8 0.00033897
5 *1189:A1 *1141:A3 0.000178656
6 *1189:A1 *1189:A0 3.53786e-05
7 *1337:D *1189:A0 0
8 *85:20 *1141:A3 0
9 *85:24 *1141:A3 0
10 *85:24 *1189:A0 0
11 *85:33 *419:8 2.59355e-05
12 *85:37 *1189:A0 0.000130576
13 *114:99 *1141:A3 0
14 *114:99 *419:8 5.52238e-05
15 *311:73 *1141:A3 0.00018372
*RES
1 *1337:Q *419:8 14.5426 
2 *419:8 *1189:A0 18.8495 
3 *419:8 *1141:A3 19.3693 
*END

*D_NET *420 0.00112192
*CONN
*I *1190:A0 I *D sky130_fd_sc_hd__mux2_1
*I *1147:A3 I *D sky130_fd_sc_hd__mux4_2
*I *1338:Q O *D sky130_fd_sc_hd__dfxtp_1
*CAP
1 *1190:A0 1.89274e-05
2 *1147:A3 0.0001801
3 *1338:Q 9.74001e-05
4 *420:8 0.000296427
5 *1147:A3 *444:216 0.00016271
6 *1147:A1 *1147:A3 0
7 *1190:A1 *420:8 0
8 *1190:S *1190:A0 9.90431e-05
9 *1190:S *420:8 0.000136951
10 *1434:D *420:8 0
11 *283:8 *1147:A3 0
12 *311:34 *1147:A3 8.15095e-05
13 *311:34 *1190:A0 3.30352e-05
14 *311:34 *420:8 1.58163e-05
15 *311:43 *1147:A3 0
16 *311:47 *1147:A3 0
*RES
1 *1338:Q *420:8 12.1961 
2 *420:8 *1147:A3 24.7852 
3 *420:8 *1190:A0 10.6119 
*END

*D_NET *421 0.00221742
*CONN
*I *1191:A0 I *D sky130_fd_sc_hd__mux2_1
*I *1150:A3 I *D sky130_fd_sc_hd__mux4_2
*I *1339:Q O *D sky130_fd_sc_hd__dfxtp_1
*CAP
1 *1191:A0 0.000251121
2 *1150:A3 0
3 *1339:Q 9.91922e-05
4 *421:12 0.000350313
5 *1191:A0 *444:298 0.000482921
6 *1191:A0 *444:304 5.52238e-05
7 *421:12 *444:304 0.000353432
8 *1191:A1 *1191:A0 9.90431e-05
9 *1339:D *1191:A0 1.74352e-05
10 *1339:D *421:12 2.89114e-05
11 *1435:CLK *1191:A0 0
12 *1435:CLK *421:12 1.40415e-05
13 *269:16 *1191:A0 9.61455e-05
14 *285:12 *421:12 0.000142847
15 *285:26 *421:12 8.68851e-05
16 *305:22 *1191:A0 0.000139907
*RES
1 *1339:Q *421:12 25.107 
2 *421:12 *1150:A3 9.3 
3 *421:12 *1191:A0 19.1515 
*END

*D_NET *422 0.00161734
*CONN
*I *1156:A3 I *D sky130_fd_sc_hd__mux4_2
*I *1192:A0 I *D sky130_fd_sc_hd__mux2_1
*I *1340:Q O *D sky130_fd_sc_hd__dfxtp_1
*CAP
1 *1156:A3 0.000276771
2 *1192:A0 0.000264659
3 *1340:Q 0
4 *422:4 0.00054143
5 *1156:A2 *1156:A3 0.000328413
6 *1156:A2 *1192:A0 0
7 *1340:D *1192:A0 0
8 *1364:CLK *1192:A0 0
9 *1364:D *1156:A3 1.05999e-05
10 *1436:CLK *1192:A0 1.26981e-05
11 *1436:D *1156:A3 0
12 *1436:D *1192:A0 0
13 *78:29 *1192:A0 2.72887e-05
14 *108:70 *1192:A0 0
15 *108:74 *1192:A0 0.000155484
16 *309:47 *1192:A0 0
*RES
1 *1340:Q *422:4 9.3 
2 *422:4 *1192:A0 25.7258 
3 *422:4 *1156:A3 17.5921 
*END

*D_NET *423 0.000927691
*CONN
*I *1193:A0 I *D sky130_fd_sc_hd__mux2_1
*I *1161:A3 I *D sky130_fd_sc_hd__mux4_2
*I *1341:Q O *D sky130_fd_sc_hd__dfxtp_1
*CAP
1 *1193:A0 0.000209581
2 *1161:A3 6.59503e-05
3 *1341:Q 0
4 *423:4 0.000275531
5 *1161:A3 *1167:S1 0.000121362
6 *1161:A3 *444:216 5.80706e-06
7 *1161:A2 *1161:A3 4.46186e-06
8 *1193:A1 *1193:A0 1.39841e-05
9 *1307:A0 *1193:A0 0
10 *293:14 *1193:A0 8.76257e-05
11 *293:32 *1161:A3 8.62409e-05
12 *293:32 *1193:A0 5.71472e-05
*RES
1 *1341:Q *423:4 9.3 
2 *423:4 *1161:A3 22.2604 
3 *423:4 *1193:A0 15.9337 
*END

*D_NET *424 0.00140241
*CONN
*I *1194:A0 I *D sky130_fd_sc_hd__mux2_1
*I *1165:A3 I *D sky130_fd_sc_hd__mux4_2
*I *1342:Q O *D sky130_fd_sc_hd__dfxtp_1
*CAP
1 *1194:A0 6.55487e-05
2 *1165:A3 0.000108569
3 *1342:Q 0
4 *424:6 0.000174118
5 *1165:A3 *1171:S1 5.52238e-05
6 *1165:A3 *444:172 2.82057e-05
7 *1194:A0 *444:172 0.000148617
8 *1165:S0 *1165:A3 0.000126439
9 *1225:S *1165:A3 0
10 *114:99 *1165:A3 5.66157e-05
11 *283:22 *1165:A3 0.000136951
12 *299:49 *1165:A3 0.000225314
13 *299:49 *1194:A0 0.000276809
*RES
1 *1342:Q *424:6 13.8 
2 *424:6 *1165:A3 19.6416 
3 *424:6 *1194:A0 18.602 
*END

*D_NET *425 0.00203167
*CONN
*I *1171:A3 I *D sky130_fd_sc_hd__mux4_2
*I *1195:A0 I *D sky130_fd_sc_hd__mux2_1
*I *1343:Q O *D sky130_fd_sc_hd__dfxtp_1
*CAP
1 *1171:A3 3.61041e-05
2 *1195:A0 0.000279432
3 *1343:Q 0.000125458
4 *425:8 0.000440994
5 *1171:A1 *425:8 0
6 *1171:A2 *1195:A0 0.000279953
7 *1195:A1 *1195:A0 0
8 *1290:A0 *1171:A3 0
9 *1290:A0 *1195:A0 5.51408e-05
10 *1290:A1 *1171:A3 9.90431e-05
11 *1291:A0 *1195:A0 0.00011009
12 *1309:A1 *1195:A0 0
13 *1422:D *1195:A0 9.14355e-05
14 *1438:CLK *1195:A0 4.46231e-06
15 *1439:D *425:8 0.00018037
16 *78:50 *1195:A0 0.000227526
17 *309:61 *425:8 0.000101666
*RES
1 *1343:Q *425:8 19.0228 
2 *425:8 *1195:A0 25.607 
3 *425:8 *1171:A3 15.1119 
*END

*D_NET *426 0.00139661
*CONN
*I *1199:A1 I *D sky130_fd_sc_hd__mux2_1
*I *1136:A0 I *D sky130_fd_sc_hd__mux4_2
*I *1344:Q O *D sky130_fd_sc_hd__dfxtp_1
*CAP
1 *1199:A1 6.96233e-05
2 *1136:A0 4.36014e-05
3 *1344:Q 0.000218198
4 *426:12 0.000331423
5 *1136:A0 *491:28 4.884e-05
6 *1199:A1 *491:28 0.000101169
7 *426:12 *490:30 2.79421e-05
8 *426:12 *492:32 1.27295e-05
9 *1344:D *1136:A0 7.65354e-05
10 *1344:D *1199:A1 7.48301e-06
11 *104:66 *1199:A1 5.71472e-05
12 *104:82 *1199:A1 9.02331e-05
13 *106:115 *426:12 0
14 *128:27 *426:12 0.000112985
15 *271:28 *426:12 0.000198705
*RES
1 *1344:Q *426:12 24.8594 
2 *426:12 *1136:A0 11.1812 
3 *426:12 *1199:A1 12.8891 
*END

*D_NET *427 0.000866958
*CONN
*I *1200:A1 I *D sky130_fd_sc_hd__mux2_1
*I *1142:A0 I *D sky130_fd_sc_hd__mux4_2
*I *1345:Q O *D sky130_fd_sc_hd__dfxtp_1
*CAP
1 *1200:A1 7.01224e-05
2 *1142:A0 0
3 *1345:Q 0.000137026
4 *427:10 0.000207149
5 *427:10 *435:10 8.81182e-05
6 *1142:S0 *1200:A1 0
7 *1142:S0 *427:10 0
8 *1200:S *1200:A1 5.71472e-05
9 *1294:A1 *1200:A1 4.1331e-06
10 *1326:S *1200:A1 3.80953e-06
11 *1441:D *427:10 0
12 *105:42 *1200:A1 3.67142e-05
13 *105:115 *1200:A1 3.20153e-05
14 *263:14 *1200:A1 3.88799e-05
15 *263:14 *427:10 4.96906e-05
16 *312:77 *427:10 0.000142152
*RES
1 *1345:Q *427:10 19.3693 
2 *427:10 *1142:A0 13.8 
3 *427:10 *1200:A1 16.9683 
*END

*D_NET *428 0.00190938
*CONN
*I *1201:A1 I *D sky130_fd_sc_hd__mux2_1
*I *1146:A0 I *D sky130_fd_sc_hd__mux4_2
*I *1346:Q O *D sky130_fd_sc_hd__dfxtp_1
*CAP
1 *1201:A1 0.0001159
2 *1146:A0 0.000123097
3 *1346:Q 0.000142596
4 *428:8 0.000381592
5 *1201:A1 *443:88 0
6 *428:8 *445:150 0
7 *1149:A2 *1146:A0 0.000227539
8 *1162:S0 *1201:A1 3.34295e-05
9 *1162:S0 *428:8 0.000358977
10 *1346:CLK *1146:A0 0.000185643
11 *1346:D *1146:A0 8.65694e-05
12 *106:165 *1146:A0 0
13 *106:165 *428:8 0
14 *106:180 *1146:A0 0
15 *267:28 *1146:A0 5.56746e-05
16 *267:28 *428:8 6.20656e-05
17 *268:22 *428:8 1.58213e-06
18 *296:20 *1201:A1 0.000124469
19 *296:26 *1201:A1 1.02504e-05
*RES
1 *1346:Q *428:8 15.1911 
2 *428:8 *1146:A0 15.1664 
3 *428:8 *1201:A1 22.2604 
*END

*D_NET *429 0.00110492
*CONN
*I *1202:A1 I *D sky130_fd_sc_hd__mux2_1
*I *1153:A0 I *D sky130_fd_sc_hd__mux4_2
*I *1347:Q O *D sky130_fd_sc_hd__dfxtp_1
*CAP
1 *1202:A1 6.34796e-05
2 *1153:A0 5.71493e-05
3 *1347:Q 0.000129769
4 *429:12 0.000250398
5 *1153:A0 *444:520 5.52238e-05
6 *429:12 *444:520 0
7 *1153:S0 *429:12 0
8 *1347:D *1153:A0 1.34703e-05
9 *1347:D *429:12 0.000113424
10 *96:16 *429:12 6.78055e-06
11 *106:115 *429:12 0
12 *107:52 *1202:A1 4.18895e-05
13 *107:62 *1153:A0 0.000230475
14 *107:62 *1202:A1 0.000142856
*RES
1 *1347:Q *429:12 22.5822 
2 *429:12 *1153:A0 12.3198 
3 *429:12 *1202:A1 11.7505 
*END

*D_NET *430 0.000831793
*CONN
*I *1203:A1 I *D sky130_fd_sc_hd__mux2_1
*I *1157:A0 I *D sky130_fd_sc_hd__mux4_2
*I *1348:Q O *D sky130_fd_sc_hd__dfxtp_1
*CAP
1 *1203:A1 4.28082e-05
2 *1157:A0 7.89681e-05
3 *1348:Q 5.09967e-05
4 *430:10 0.000172773
5 *430:10 *445:154 0
6 *1348:D *1157:A0 2.09869e-05
7 *1348:D *430:10 4.81157e-05
8 *108:40 *1203:A1 4.38128e-05
9 *108:48 *1157:A0 0.000274288
10 *108:48 *1203:A1 9.90431e-05
11 *110:16 *430:10 0
12 *296:62 *1157:A0 0
13 *296:62 *1203:A1 0
*RES
1 *1348:Q *430:10 20.1564 
2 *430:10 *1157:A0 12.8891 
3 *430:10 *1203:A1 11.1812 
*END

*D_NET *431 0.00106095
*CONN
*I *1204:A1 I *D sky130_fd_sc_hd__mux2_1
*I *1162:A0 I *D sky130_fd_sc_hd__mux4_2
*I *1349:Q O *D sky130_fd_sc_hd__dfxtp_1
*CAP
1 *1204:A1 4.39914e-05
2 *1162:A0 5.86711e-05
3 *1349:Q 7.56244e-05
4 *431:10 0.000178287
5 *431:10 *1162:A1 9.33978e-07
6 *1296:S *1162:A0 7.43578e-06
7 *107:96 *1162:A0 0
8 *107:96 *431:10 3.14163e-05
9 *296:10 *1204:A1 2.48938e-05
10 *296:20 *1204:A1 0.000205271
11 *296:20 *431:10 0.000106403
12 *305:12 *1204:A1 0.000219908
13 *305:12 *431:10 0.000108118
*RES
1 *1349:Q *431:10 16.9683 
2 *431:10 *1162:A0 15.1119 
3 *431:10 *1204:A1 17.7604 
*END

*D_NET *432 0.00144021
*CONN
*I *1168:A0 I *D sky130_fd_sc_hd__mux4_2
*I *1205:A1 I *D sky130_fd_sc_hd__mux2_1
*I *1350:Q O *D sky130_fd_sc_hd__dfxtp_1
*CAP
1 *1168:A0 0.000232205
2 *1205:A1 4.9263e-05
3 *1350:Q 0.000141449
4 *432:12 0.000422918
5 *1168:A0 *1168:A1 0
6 *1168:S0 *1168:A0 2.10446e-05
7 *1169:A1 *1168:A0 3.10821e-05
8 *1206:A0 *1168:A0 0
9 *1317:A1 *1205:A1 0.00014285
10 *1317:A1 *432:12 0.000399401
11 *1317:S *1168:A0 0
12 *1351:D *1168:A0 0
*RES
1 *1350:Q *432:12 23.8941 
2 *432:12 *1205:A1 11.1812 
3 *432:12 *1168:A0 23.5228 
*END

*D_NET *433 0.00141197
*CONN
*I *1172:A0 I *D sky130_fd_sc_hd__mux4_2
*I *1206:A1 I *D sky130_fd_sc_hd__mux2_1
*I *1351:Q O *D sky130_fd_sc_hd__dfxtp_1
*CAP
1 *1172:A0 1.16456e-05
2 *1206:A1 0.000215611
3 *1351:Q 0.000111011
4 *433:10 0.000338268
5 *1172:A0 *441:10 1.74352e-05
6 *1206:A1 *441:10 0.000137378
7 *1206:A1 *444:127 9.25014e-06
8 *1206:A1 *444:137 8.15095e-05
9 *433:10 *1318:A0 6.43583e-05
10 *433:10 *441:10 1.88048e-05
11 *1174:A1 *433:10 4.81157e-05
12 *1317:S *1206:A1 2.84398e-05
13 *1447:CLK *1206:A1 1.00073e-05
14 *88:28 *1206:A1 0
15 *105:58 *1206:A1 0
16 *105:58 *433:10 0
17 *114:60 *1172:A0 2.28598e-05
18 *114:74 *1172:A0 1.24368e-05
19 *114:74 *1206:A1 0.000181796
20 *312:46 *1206:A1 0.000103041
*RES
1 *1351:Q *433:10 21.8396 
2 *433:10 *1206:A1 26.3941 
3 *433:10 *1172:A0 10.0426 
*END

*D_NET *434 0.00161118
*CONN
*I *1136:A1 I *D sky130_fd_sc_hd__mux4_2
*I *1311:A0 I *D sky130_fd_sc_hd__mux2_1
*I *1440:Q O *D sky130_fd_sc_hd__dfxtp_1
*CAP
1 *1136:A1 0.000195593
2 *1311:A0 0.000184481
3 *1440:Q 0
4 *434:4 0.000380074
5 *1311:A0 *1136:S1 0.000157412
6 *1136:A3 *1136:A1 0
7 *1139:A1 *1136:A1 4.46186e-06
8 *1208:A *1136:A1 8.22857e-05
9 *1:21 *1311:A0 4.5534e-05
10 *104:82 *1311:A0 0.000151857
11 *110:16 *1311:A0 0.000144023
12 *257:30 *1136:A1 0
13 *259:16 *1136:A1 0.000265453
*RES
1 *1440:Q *434:4 9.3 
2 *434:4 *1311:A0 26.4684 
3 *434:4 *1136:A1 24.5872 
*END

*D_NET *435 0.00127037
*CONN
*I *1312:A0 I *D sky130_fd_sc_hd__mux2_1
*I *1142:A1 I *D sky130_fd_sc_hd__mux4_2
*I *1441:Q O *D sky130_fd_sc_hd__dfxtp_1
*CAP
1 *1312:A0 0.000121045
2 *1142:A1 3.96115e-05
3 *1441:Q 0.000179498
4 *435:10 0.000340155
5 *1142:S0 *435:10 0
6 *1345:D *435:10 0
7 *1441:D *435:10 0
8 *105:42 *1142:A1 2.14658e-05
9 *105:42 *1312:A0 0.000239722
10 *105:48 *1142:A1 3.18676e-05
11 *312:77 *1142:A1 0
12 *312:77 *1312:A0 0.000170964
13 *312:77 *435:10 3.79197e-05
14 *427:10 *435:10 8.81182e-05
*RES
1 *1441:Q *435:10 24.3644 
2 *435:10 *1142:A1 10.6119 
3 *435:10 *1312:A0 15.1664 
*END

*D_NET *436 0.000899843
*CONN
*I *1313:A0 I *D sky130_fd_sc_hd__mux2_1
*I *1146:A1 I *D sky130_fd_sc_hd__mux4_2
*I *1442:Q O *D sky130_fd_sc_hd__dfxtp_1
*CAP
1 *1313:A0 1.98775e-05
2 *1146:A1 0
3 *1442:Q 0.000106415
4 *436:10 0.000126293
5 *1313:A0 *444:282 0.000123762
6 *436:10 *444:271 0.000157899
7 *436:10 *444:282 9.25014e-06
8 *1146:S0 *436:10 4.66989e-07
9 *87:49 *436:10 1.74352e-05
10 *106:180 *1313:A0 0.000134719
11 *106:180 *436:10 0.000203725
*RES
1 *1442:Q *436:10 18.3792 
2 *436:10 *1146:A1 13.8 
3 *436:10 *1313:A0 16.0772 
*END

*D_NET *437 0.00180585
*CONN
*I *1314:A0 I *D sky130_fd_sc_hd__mux2_1
*I *1153:A1 I *D sky130_fd_sc_hd__mux4_2
*I *1443:Q O *D sky130_fd_sc_hd__dfxtp_1
*CAP
1 *1314:A0 0.00016695
2 *1153:A1 0
3 *1443:Q 0.000121662
4 *437:10 0.000288612
5 *1314:A0 *1136:S1 0.000213549
6 *437:10 *1136:S1 1.76135e-05
7 *1153:S0 *1314:A0 6.0038e-05
8 *1153:S0 *437:10 0.000302424
9 *1314:S *1314:A0 2.89016e-05
10 *1347:D *437:10 0
11 *96:16 *437:10 9.80173e-05
12 *107:62 *1314:A0 0.000314414
13 *107:72 *1314:A0 5.52302e-05
14 *109:131 *1314:A0 2.8266e-06
15 *307:22 *1314:A0 2.51343e-06
16 *307:34 *437:10 0.000104086
17 *307:100 *1314:A0 2.90184e-05
*RES
1 *1443:Q *437:10 20.3347 
2 *437:10 *1153:A1 13.8 
3 *437:10 *1314:A0 23.1565 
*END

*D_NET *438 0.00177652
*CONN
*I *1315:A0 I *D sky130_fd_sc_hd__mux2_1
*I *1157:A1 I *D sky130_fd_sc_hd__mux4_2
*I *1444:Q O *D sky130_fd_sc_hd__dfxtp_1
*CAP
1 *1315:A0 0.000103867
2 *1157:A1 0
3 *1444:Q 0.000141619
4 *438:10 0.000245486
5 *1315:A0 *443:92 1.17968e-05
6 *1315:A0 *445:150 0.000144512
7 *1315:A0 *445:154 0.000231873
8 *438:10 *443:92 0.000144389
9 *438:10 *445:154 0.000299995
10 *1315:A1 *1315:A0 0
11 *88:112 *438:10 8.71847e-05
12 *108:48 *1315:A0 3.8361e-06
13 *261:24 *438:10 8.3722e-05
14 *273:26 *1315:A0 0.000244801
15 *273:26 *438:10 3.34366e-05
*RES
1 *1444:Q *438:10 22.0426 
2 *438:10 *1157:A1 13.8 
3 *438:10 *1315:A0 20.2852 
*END

*D_NET *439 0.00185339
*CONN
*I *1162:A1 I *D sky130_fd_sc_hd__mux4_2
*I *1316:A0 I *D sky130_fd_sc_hd__mux2_1
*I *1445:Q O *D sky130_fd_sc_hd__dfxtp_1
*CAP
1 *1162:A1 6.16934e-05
2 *1316:A0 0.000186346
3 *1445:Q 7.62168e-05
4 *439:10 0.000324256
5 *1316:A0 *445:137 0.000150476
6 *1253:A1 *1316:A0 5.52302e-05
7 *1296:S *1162:A1 0
8 *1296:S *439:10 9.41642e-05
9 *1349:D *1316:A0 0.000157906
10 *1349:D *439:10 0.000170113
11 *90:57 *1316:A0 4.46186e-06
12 *90:66 *1316:A0 0.000207272
13 *90:66 *439:10 9.66577e-05
14 *107:96 *1162:A1 0
15 *109:143 *439:10 9.41642e-05
16 *269:16 *1316:A0 3.82242e-05
17 *305:16 *1316:A0 9.31209e-05
18 *312:16 *1316:A0 4.21584e-05
19 *431:10 *1162:A1 9.33978e-07
*RES
1 *1445:Q *439:10 18.2307 
2 *439:10 *1316:A0 23.1565 
3 *439:10 *1162:A1 15.1119 
*END

*D_NET *440 0.00143707
*CONN
*I *1317:A0 I *D sky130_fd_sc_hd__mux2_1
*I *1168:A1 I *D sky130_fd_sc_hd__mux4_2
*I *1446:Q O *D sky130_fd_sc_hd__dfxtp_1
*CAP
1 *1317:A0 0.000168209
2 *1168:A1 0.000435719
3 *1446:Q 0
4 *440:4 0.000603928
5 *1168:A0 *1168:A1 0
6 *1168:S0 *1168:A1 5.7616e-05
7 *1249:S *1168:A1 1.76135e-05
8 *1446:D *1168:A1 5.30209e-05
9 *1446:D *1317:A0 0.00010096
10 *344:12 *1168:A1 0
*RES
1 *1446:Q *440:4 9.3 
2 *440:4 *1168:A1 30.602 
3 *440:4 *1317:A0 14.3248 
*END

*D_NET *441 0.00188291
*CONN
*I *1318:A0 I *D sky130_fd_sc_hd__mux2_1
*I *1172:A1 I *D sky130_fd_sc_hd__mux4_2
*I *1447:Q O *D sky130_fd_sc_hd__dfxtp_1
*CAP
1 *1318:A0 0.000248309
2 *1172:A1 0
3 *1447:Q 0.000130498
4 *441:10 0.000378807
5 *1318:A0 *444:127 0.000167077
6 *441:10 *444:127 2.39876e-05
7 *1172:A0 *441:10 1.74352e-05
8 *1174:A1 *1318:A0 0
9 *1206:A1 *441:10 0.000137378
10 *1351:CLK *1318:A0 1.96078e-05
11 *1447:CLK *441:10 0.000318101
12 *105:58 *441:10 0
13 *110:36 *1318:A0 0.000265447
14 *111:66 *1318:A0 1.40306e-05
15 *114:60 *441:10 1.42064e-05
16 *312:46 *1318:A0 6.48594e-05
17 *433:10 *1318:A0 6.43583e-05
18 *433:10 *441:10 1.88048e-05
*RES
1 *1447:Q *441:10 20.2357 
2 *441:10 *1172:A1 13.8 
3 *441:10 *1318:A0 23.8743 
*END

*D_NET *442 0.0349045
*CONN
*I *1459:C I *D sky130_fd_sc_hd__and4b_1
*I *1467:A I *D sky130_fd_sc_hd__xnor2_1
*I *1133:A I *D sky130_fd_sc_hd__buf_16
*I *1136:S0 I *D sky130_fd_sc_hd__mux4_2
*I *1135:S0 I *D sky130_fd_sc_hd__mux4_2
*I *1160:S0 I *D sky130_fd_sc_hd__mux4_2
*I *1155:S0 I *D sky130_fd_sc_hd__mux4_2
*I *1145:S0 I *D sky130_fd_sc_hd__mux4_2
*I *1140:S0 I *D sky130_fd_sc_hd__mux4_2
*I *1152:S0 I *D sky130_fd_sc_hd__mux4_2
*I *1170:S0 I *D sky130_fd_sc_hd__mux4_2
*I *1161:S0 I *D sky130_fd_sc_hd__mux4_2
*I *1167:S0 I *D sky130_fd_sc_hd__mux4_2
*I *1137:S0 I *D sky130_fd_sc_hd__mux4_2
*I *1163:S0 I *D sky130_fd_sc_hd__mux4_2
*I *1138:S0 I *D sky130_fd_sc_hd__mux4_2
*I *1458:C I *D sky130_fd_sc_hd__nand3b_1
*I *1486:Q O *D sky130_fd_sc_hd__dfrtp_4
*CAP
1 *1459:C 4.00239e-05
2 *1467:A 1.96206e-05
3 *1133:A 0
4 *1136:S0 1.21101e-05
5 *1135:S0 0.000504008
6 *1160:S0 0.0003616
7 *1155:S0 0.000256413
8 *1145:S0 0.000779625
9 *1140:S0 0
10 *1152:S0 2.72319e-05
11 *1170:S0 0.000399108
12 *1161:S0 0.000382807
13 *1167:S0 0.00108874
14 *1137:S0 6.44842e-05
15 *1163:S0 0.000168508
16 *1138:S0 0.000636928
17 *1458:C 0
18 *1486:Q 0
19 *442:172 0.000872176
20 *442:152 0.00112035
21 *442:145 0.000413091
22 *442:134 0.000380306
23 *442:122 0.000726423
24 *442:98 0.00105567
25 *442:84 0.00133978
26 *442:74 0.00214324
27 *442:58 0.00147606
28 *442:33 0.00151196
29 *442:16 0.0013271
30 *442:12 0.000654167
31 *442:4 0.000620937
32 *1138:S0 *444:40 9.71197e-05
33 *1152:S0 *1140:S1 5.83304e-05
34 *1155:S0 *444:336 0
35 *1160:S0 *1160:S1 0
36 *1160:S0 *444:342 0.000612212
37 *1161:S0 *1167:S1 0
38 *1170:S0 *444:314 4.70821e-05
39 *1170:S0 *444:397 0
40 *1459:C *1459:D 0.000182799
41 *1459:C *455:25 6.93295e-05
42 *1467:A *1505:D 4.73656e-05
43 *442:12 *1468:A 4.97621e-05
44 *442:12 *1487:D 0
45 *442:12 *444:20 0.000353086
46 *442:16 *1505:D 0.000129868
47 *442:33 *1468:A 0
48 *442:33 *1505:D 2.77143e-05
49 *442:33 *1535:D 0.000490416
50 *442:33 *443:20 0
51 *442:33 *444:20 2.87555e-06
52 *442:33 *444:34 0.000810909
53 *442:33 *444:40 0.000142434
54 *442:33 *471:18 8.6326e-05
55 *442:58 *1163:S1 0.000141622
56 *442:58 *444:40 2.51343e-06
57 *442:58 *445:80 8.9403e-05
58 *442:74 *443:30 2.60254e-05
59 *442:74 *490:40 0.000182983
60 *442:84 *490:40 0.000344086
61 *442:145 *1140:S1 0.00118621
62 *1118:A *1145:S0 1.34703e-05
63 *1119:A *1145:S0 2.17421e-05
64 *1135:A0 *1135:S0 2.81497e-05
65 *1137:A3 *1167:S0 0
66 *1138:A3 *442:33 3.80953e-06
67 *1139:A0 *442:33 0
68 *1139:A0 *442:58 0.000568533
69 *1145:A0 *1145:S0 2.28598e-05
70 *1145:A0 *442:172 1.24368e-05
71 *1145:A1 *442:172 9.80173e-05
72 *1161:A0 *1161:S0 3.69047e-06
73 *1167:A0 *1167:S0 1.92905e-05
74 *1170:A1 *1170:S0 4.27437e-05
75 *1177:S *1135:S0 0
76 *1178:S *1145:S0 0
77 *1187:A *442:84 0.000138263
78 *1188:A0 *1167:S0 9.60939e-05
79 *1188:A1 *1167:S0 6.73561e-05
80 *1193:A1 *1161:S0 0
81 *1217:A_N *442:84 7.38699e-05
82 *1217:B *442:84 1.54027e-05
83 *1218:A1 *1167:S0 9.90367e-05
84 *1218:A1 *442:98 0.000178663
85 *1227:B *442:122 4.33002e-05
86 *1229:A0 *1145:S0 0.000440705
87 *1229:S *1145:S0 0.000128248
88 *1229:S *442:172 0
89 *1231:A0 *1152:S0 1.12323e-05
90 *1231:A0 *442:122 0.000247786
91 *1231:A0 *442:134 0.0001091
92 *1231:A1 *1170:S0 4.58194e-05
93 *1257:A0 *1135:S0 0
94 *1257:A1 *1135:S0 0
95 *1258:A0 *442:145 0.000214093
96 *1258:A1 *442:152 6.8646e-06
97 *1261:A0 *1155:S0 9.4724e-05
98 *1263:A0 *1167:S0 0
99 *1263:S *1167:S0 0
100 *1266:A0 *442:33 2.40748e-05
101 *1277:A1 *442:172 9.33978e-07
102 *1284:A0 *1167:S0 0
103 *1284:S *442:98 0
104 *1284:S *442:122 0
105 *1302:A1 *442:84 9.90431e-05
106 *1320:A1 *1138:S0 2.18443e-05
107 *1329:D *1135:S0 4.13573e-05
108 *1329:D *442:145 2.39876e-05
109 *1329:D *442:152 0.000135465
110 *1331:CLK *1170:S0 3.63587e-05
111 *1331:D *442:122 3.81e-05
112 *1331:D *442:134 5.80706e-06
113 *1336:D *1167:S0 0
114 *1357:D *442:58 2.35858e-05
115 *1365:D *1161:S0 5.66551e-05
116 *1393:D *1145:S0 6.42095e-05
117 *1394:D *1160:S0 0.000153769
118 *1396:D *1155:S0 0
119 *1448:D *442:58 0.000390959
120 *1458:A_N *442:33 3.93346e-05
121 *1487:CLK *442:12 1.39726e-05
122 *1487:RESET_B *442:12 2.52796e-05
123 *1685:CLK *1135:S0 0
124 *1689:CLK *1135:S0 0
125 *1:21 *442:74 0
126 *69:115 *442:12 0.000168977
127 *69:115 *442:33 9.41642e-05
128 *79:10 *1145:S0 5.88068e-05
129 *81:20 *1138:S0 9.39994e-05
130 *81:34 *1163:S0 6.88749e-05
131 *81:34 *442:74 1.73191e-05
132 *81:40 *1163:S0 9.95368e-05
133 *81:69 *442:74 0.000187361
134 *86:31 *1161:S0 0
135 *94:18 *442:74 5.96243e-05
136 *102:12 *1459:C 9.25014e-06
137 *102:12 *442:12 0
138 *102:18 *442:12 0
139 *103:25 *442:16 5.80706e-06
140 *103:38 *1467:A 2.84494e-05
141 *103:38 *442:16 6.1684e-05
142 *104:24 *442:33 0
143 *104:30 *442:33 0
144 *104:49 *1138:S0 9.90367e-05
145 *104:49 *442:33 0.000595711
146 *104:55 *1138:S0 0
147 *104:133 *1167:S0 0.000173328
148 *104:135 *1167:S0 0.000302902
149 *104:189 *1135:S0 0
150 *105:200 *1135:S0 1.69115e-05
151 *105:202 *1135:S0 5.89643e-05
152 *105:202 *442:152 3.69865e-05
153 *105:221 *1145:S0 1.29201e-05
154 *106:57 *442:172 6.13757e-06
155 *106:70 *1160:S0 4.8936e-05
156 *107:14 *442:58 2.39876e-05
157 *107:148 *442:98 0.000203557
158 *107:148 *442:122 0.000675449
159 *108:10 *442:58 3.5297e-05
160 *109:34 *1135:S0 0
161 *109:44 *1160:S0 0
162 *109:115 *1163:S0 0.000156815
163 *109:115 *442:74 0.000116654
164 *109:196 *1161:S0 0
165 *110:16 *1136:S0 2.11419e-05
166 *257:10 *1135:S0 0
167 *257:10 *1152:S0 2.6949e-05
168 *257:10 *442:122 0.000100429
169 *257:30 *442:84 4.49582e-05
170 *259:16 *442:84 0.00060816
171 *261:12 *442:145 0
172 *277:10 *1155:S0 0.000171895
173 *277:10 *1160:S0 0.000172068
174 *277:10 *442:172 0.000200139
175 *277:30 *1161:S0 0.000358764
176 *280:16 *1163:S0 2.81497e-05
177 *283:8 *1161:S0 0.000126911
178 *285:8 *1170:S0 5.33334e-05
179 *298:20 *1163:S0 0
180 *298:20 *442:58 2.217e-05
181 *299:12 *1137:S0 7.14165e-05
182 *299:12 *442:84 0.000228956
183 *306:23 *442:134 3.78722e-05
184 *306:23 *442:145 0.000826947
185 *306:45 *1155:S0 0.000215754
186 *306:45 *1160:S0 9.98942e-05
187 *308:12 *1170:S0 0
188 *309:8 *1137:S0 4.00276e-06
189 *309:8 *1167:S0 0.000125882
190 *309:8 *442:84 3.06878e-06
191 *313:25 *442:74 0
192 *313:25 *442:84 0
193 *331:10 *442:145 2.49484e-05
194 *331:10 *442:152 7.40153e-05
195 *332:8 *1145:S0 7.50473e-05
196 *332:8 *442:172 2.87555e-06
197 *334:14 *1155:S0 5.83233e-05
198 *391:10 *1161:S0 0
*RES
1 *1486:Q *442:4 9.3 
2 *442:4 *442:12 22.2229 
3 *442:12 *442:16 6.77724 
4 *442:16 *1458:C 9.3 
5 *442:16 *442:33 47.129 
6 *442:33 *1138:S0 15.7327 
7 *1138:S0 *442:58 28.859 
8 *442:58 *1163:S0 10.7995 
9 *442:58 *442:74 9.75478 
10 *442:74 *442:84 21.7562 
11 *442:84 *1137:S0 1.99258 
12 *442:84 *442:98 8.03962 
13 *442:98 *1167:S0 25.7006 
14 *1167:S0 *1161:S0 23.2946 
15 *442:98 *442:122 13.2179 
16 *442:122 *1170:S0 14.859 
17 *442:122 *442:134 2.06684 
18 *442:134 *1152:S0 6.14605 
19 *442:134 *442:145 23.1561 
20 *442:145 *1140:S0 4.5 
21 *442:145 *442:152 4.38121 
22 *442:152 *1145:S0 23.2748 
23 *1145:S0 *442:172 13.3614 
24 *442:172 *1155:S0 15.2798 
25 *442:172 *1160:S0 20.9976 
26 *442:152 *1135:S0 18.5719 
27 *442:74 *1136:S0 8.29366 
28 *442:33 *1133:A 9.3 
29 *442:12 *1467:A 14.8149 
30 *442:4 *1459:C 21.4188 
*END

*D_NET *443 0.0298619
*CONN
*I *1459:D I *D sky130_fd_sc_hd__and4b_1
*I *1460:A I *D sky130_fd_sc_hd__xor2_1
*I *1139:S0 I *D sky130_fd_sc_hd__mux4_2
*I *1164:S1 I *D sky130_fd_sc_hd__mux4_2
*I *1149:S0 I *D sky130_fd_sc_hd__mux4_2
*I *1159:S1 I *D sky130_fd_sc_hd__mux4_2
*I *1174:S1 I *D sky130_fd_sc_hd__mux4_2
*I *1169:S1 I *D sky130_fd_sc_hd__mux4_2
*I *1154:S1 I *D sky130_fd_sc_hd__mux4_2
*I *1144:S1 I *D sky130_fd_sc_hd__mux4_2
*I *1487:Q O *D sky130_fd_sc_hd__dfrtp_1
*CAP
1 *1459:D 0.000182506
2 *1460:A 0
3 *1139:S0 4.96089e-05
4 *1164:S1 0
5 *1149:S0 0
6 *1159:S1 7.72721e-05
7 *1174:S1 9.93614e-05
8 *1169:S1 0.000248011
9 *1154:S1 0.000165309
10 *1144:S1 0.000793276
11 *1487:Q 3.43233e-05
12 *443:92 0.000716878
13 *443:88 0.000915795
14 *443:80 0.00110097
15 *443:68 0.00132433
16 *443:34 0.001213
17 *443:32 0.00100403
18 *443:30 0.00103679
19 *443:20 0.00264443
20 *443:14 0.00223642
21 *443:8 0.000738773
22 *1139:S0 *445:80 4.08796e-05
23 *1154:S1 *445:116 9.39803e-05
24 *1169:S1 *1169:S0 0.000270526
25 *1459:D *455:25 0
26 *443:14 *1468:A 0
27 *443:14 *1487:D 0
28 *443:14 *455:25 0.000174361
29 *443:20 *1460:B 0.000317082
30 *443:20 *1490:D 2.27416e-05
31 *443:20 *1495:D 5.14413e-05
32 *443:20 *1535:D 0
33 *443:20 *471:18 8.37335e-05
34 *443:30 *444:34 0.00020546
35 *443:80 *1164:S0 0.000459967
36 *443:92 *1157:S1 7.08063e-05
37 *443:92 *1169:S0 3.34366e-05
38 *443:92 *445:154 0.000113691
39 *443:92 *445:160 0.000124469
40 *1083:B2 *443:14 0
41 *1087:A1 *443:20 0
42 *1092:A0 *443:20 0
43 *1099:RESET_B *443:20 0
44 *1144:A2 *1174:S1 0
45 *1144:A3 *1144:S1 0
46 *1146:S0 *443:88 0.000106308
47 *1148:A3 *1144:S1 0
48 *1149:A2 *443:88 8.15095e-05
49 *1154:A1 *1154:S1 0
50 *1159:A2 *443:88 0.000437756
51 *1159:A3 *1159:S1 5.33005e-05
52 *1162:A2 *443:80 8.32242e-05
53 *1162:S0 *443:80 0.000104208
54 *1162:S0 *443:88 0
55 *1163:A3 *443:34 5.73303e-05
56 *1164:A3 *443:80 0.000200422
57 *1169:A0 *1169:S1 2.89016e-05
58 *1169:A1 *1169:S1 0.0001827
59 *1169:A1 *1174:S1 0
60 *1174:A1 *1169:S1 0
61 *1174:A1 *1174:S1 9.90367e-05
62 *1201:A1 *443:88 0
63 *1202:S *1144:S1 0.000255052
64 *1202:S *443:34 0.000295851
65 *1208:C *443:68 3.52077e-05
66 *1209:A0 *443:20 9.99644e-06
67 *1209:A1 *443:20 5.33433e-05
68 *1209:A1 *443:30 0.000131835
69 *1215:S *1144:S1 0.00014285
70 *1248:A0 *443:68 2.28598e-05
71 *1248:S *443:68 2.28598e-05
72 *1253:A0 *443:80 2.37898e-05
73 *1315:A0 *443:92 1.17968e-05
74 *1315:A1 *1159:S1 1.13406e-05
75 *1315:A1 *443:88 1.40415e-05
76 *1315:S *443:88 2.72695e-05
77 *1319:B *443:68 0
78 *1346:D *443:88 0.000157899
79 *1348:CLK *443:92 0.000124873
80 *1352:D *443:30 0.000258363
81 *1400:D *443:20 6.09688e-05
82 *1406:CLK *443:92 9.66673e-05
83 *1444:D *443:88 5.06983e-05
84 *1445:D *443:80 0.000287254
85 *1459:C *1459:D 0.000182799
86 *1481:RESET_B *443:20 0
87 *1487:CLK *443:14 0
88 *1487:CLK *443:20 0
89 *1495:CLK *443:20 0.000175493
90 *1697:A0 *443:20 0
91 *1:21 *443:30 0.00187484
92 *50:531 *443:14 0
93 *50:531 *443:20 0
94 *81:34 *1139:S0 2.74981e-06
95 *81:34 *443:32 2.9404e-05
96 *81:34 *443:34 5.25192e-06
97 *81:40 *443:34 7.68161e-05
98 *81:40 *443:68 0
99 *90:66 *443:68 0.000118105
100 *94:18 *443:30 0.0004618
101 *104:49 *443:20 1.72752e-05
102 *104:82 *443:68 0.000300936
103 *104:104 *443:68 0.000562786
104 *106:115 *1139:S0 8.47063e-05
105 *106:115 *1144:S1 0.000670973
106 *106:115 *443:32 0.000103439
107 *106:115 *443:34 0.000720439
108 *106:117 *1144:S1 0.000393863
109 *106:123 *1144:S1 0.000125582
110 *108:48 *443:92 0.000255766
111 *109:117 *1154:S1 3.15101e-05
112 *109:131 *1154:S1 7.85796e-05
113 *109:143 *443:68 0
114 *109:143 *443:80 0
115 *109:171 *443:80 1.76469e-05
116 *110:36 *1169:S1 0
117 *111:47 *1169:S1 0
118 *114:14 *443:20 4.88631e-05
119 *259:16 *443:68 0
120 *263:14 *1144:S1 9.90431e-05
121 *270:24 *1154:S1 1.07719e-05
122 *273:26 *443:92 0.000279953
123 *278:20 *443:80 9.60939e-05
124 *292:33 *443:68 4.00276e-06
125 *296:26 *443:88 0
126 *296:32 *1169:S1 0
127 *296:32 *443:92 0
128 *298:20 *443:68 0.000529873
129 *298:38 *1144:S1 0
130 *303:34 *1144:S1 0.00133234
131 *305:6 *443:68 2.14757e-05
132 *307:20 *443:68 0.00042526
133 *310:12 *443:80 5.46387e-05
134 *310:18 *443:80 0
135 *310:18 *443:88 0
136 *312:10 *443:68 2.88424e-05
137 *312:16 *443:68 6.89925e-05
138 *312:32 *443:88 3.72932e-05
139 *312:42 *443:88 3.20153e-05
140 *312:120 *443:68 0.00015811
141 *312:120 *443:80 0
142 *350:8 *443:92 0
143 *438:10 *443:92 0.000144389
144 *442:33 *443:20 0
145 *442:74 *443:30 2.60254e-05
*RES
1 *1487:Q *443:8 14.5426 
2 *443:8 *443:14 19.7228 
3 *443:14 *443:20 48.4656 
4 *443:20 *443:30 19.1862 
5 *443:30 *443:32 2.06684 
6 *443:32 *443:34 12.7971 
7 *443:34 *1144:S1 49.9388 
8 *443:34 *1154:S1 19.6911 
9 *443:32 *443:68 42.7081 
10 *443:68 *443:80 28.9803 
11 *443:80 *443:88 20.9605 
12 *443:88 *443:92 22.3466 
13 *443:92 *1169:S1 22.2159 
14 *443:92 *1174:S1 17.3891 
15 *443:88 *1159:S1 11.1812 
16 *443:80 *1149:S0 4.5 
17 *443:68 *1164:S1 9.3 
18 *443:30 *1139:S0 6.14605 
19 *443:14 *1460:A 9.3 
20 *443:8 *1459:D 19.7716 
*END

*D_NET *444 0.0803628
*CONN
*I *1456:A I *D sky130_fd_sc_hd__clkinv_1
*I *1473:A I *D sky130_fd_sc_hd__and3_1
*I *1464:A1 I *D sky130_fd_sc_hd__a21oi_1
*I *1462:A I *D sky130_fd_sc_hd__nor2_1
*I *1138:S1 I *D sky130_fd_sc_hd__mux4_2
*I *1151:S1 I *D sky130_fd_sc_hd__mux4_2
*I *1136:S1 I *D sky130_fd_sc_hd__mux4_2
*I *1153:S1 I *D sky130_fd_sc_hd__mux4_2
*I *1148:S1 I *D sky130_fd_sc_hd__mux4_2
*I *1158:S1 I *D sky130_fd_sc_hd__mux4_2
*I *1143:S1 I *D sky130_fd_sc_hd__mux4_2
*I *1166:S1 I *D sky130_fd_sc_hd__mux4_2
*I *1172:S1 I *D sky130_fd_sc_hd__mux4_2
*I *1168:S1 I *D sky130_fd_sc_hd__mux4_2
*I *1162:S1 I *D sky130_fd_sc_hd__mux4_2
*I *1150:S1 I *D sky130_fd_sc_hd__mux4_2
*I *1137:S1 I *D sky130_fd_sc_hd__mux4_2
*I *1152:S1 I *D sky130_fd_sc_hd__mux4_2
*I *1140:S1 I *D sky130_fd_sc_hd__mux4_2
*I *1170:S1 I *D sky130_fd_sc_hd__mux4_2
*I *1155:S1 I *D sky130_fd_sc_hd__mux4_2
*I *1145:S1 I *D sky130_fd_sc_hd__mux4_2
*I *1135:S1 I *D sky130_fd_sc_hd__mux4_2
*I *1160:S1 I *D sky130_fd_sc_hd__mux4_2
*I *1146:S1 I *D sky130_fd_sc_hd__mux4_2
*I *1157:S1 I *D sky130_fd_sc_hd__mux4_2
*I *1156:S1 I *D sky130_fd_sc_hd__mux4_2
*I *1147:S1 I *D sky130_fd_sc_hd__mux4_2
*I *1167:S1 I *D sky130_fd_sc_hd__mux4_2
*I *1161:S1 I *D sky130_fd_sc_hd__mux4_2
*I *1165:S1 I *D sky130_fd_sc_hd__mux4_2
*I *1171:S1 I *D sky130_fd_sc_hd__mux4_2
*I *1141:S1 I *D sky130_fd_sc_hd__mux4_2
*I *1142:S1 I *D sky130_fd_sc_hd__mux4_2
*I *1173:S1 I *D sky130_fd_sc_hd__mux4_2
*I *1163:S1 I *D sky130_fd_sc_hd__mux4_2
*I *1488:Q O *D sky130_fd_sc_hd__dfrtp_1
*CAP
1 *1456:A 8.51781e-05
2 *1473:A 0.000313358
3 *1464:A1 0.000130327
4 *1462:A 4.17594e-05
5 *1138:S1 1.70065e-05
6 *1151:S1 0
7 *1136:S1 0.000622183
8 *1153:S1 7.32839e-05
9 *1148:S1 0
10 *1158:S1 0
11 *1143:S1 0.000181455
12 *1166:S1 0.000299942
13 *1172:S1 5.00283e-05
14 *1168:S1 0
15 *1162:S1 0.000543298
16 *1150:S1 0
17 *1137:S1 0.000151622
18 *1152:S1 0.000129567
19 *1140:S1 0.000454428
20 *1170:S1 0
21 *1155:S1 0
22 *1145:S1 4.86236e-05
23 *1135:S1 0.000415052
24 *1160:S1 0.000188866
25 *1146:S1 8.35914e-05
26 *1157:S1 0.000446277
27 *1156:S1 0
28 *1147:S1 0
29 *1167:S1 0.000366434
30 *1161:S1 1.1624e-05
31 *1165:S1 0
32 *1171:S1 0.000313713
33 *1141:S1 6.42246e-05
34 *1142:S1 0.000137165
35 *1173:S1 5.32026e-05
36 *1163:S1 0.000324658
37 *1488:Q 0
38 *444:575 0.000862778
39 *444:562 0.000667388
40 *444:520 0.00134221
41 *444:503 0.0018273
42 *444:397 0.00100228
43 *444:342 0.000797139
44 *444:336 0.000639714
45 *444:328 0.000900706
46 *444:314 0.00066087
47 *444:310 0.00103958
48 *444:304 0.00125395
49 *444:298 0.00103869
50 *444:282 0.00111756
51 *444:271 0.0007156
52 *444:246 0.000988967
53 *444:216 0.000853724
54 *444:206 0.000926287
55 *444:192 0.000744521
56 *444:172 0.000508228
57 *444:168 0.00089568
58 *444:147 0.000560461
59 *444:141 0.000588024
60 *444:137 0.000717158
61 *444:127 0.000881486
62 *444:94 0.000688126
63 *444:92 0.000809411
64 *444:73 0.000710402
65 *444:67 0.00112282
66 *444:63 0.000927423
67 *444:61 0.00154486
68 *444:59 0.0005254
69 *444:40 0.000904268
70 *444:34 0.00150091
71 *444:20 0.00199919
72 *444:8 0.00123507
73 *444:4 0.000336636
74 *1166:S1 *1144:S0 0
75 *1456:A *1471:A0 0
76 *1456:A *1477:A_N 0
77 *1464:A1 *1464:A2 8.40933e-05
78 *1464:A1 *1464:B1 0.00014285
79 *1464:A1 *1473:C 1.98839e-05
80 *1473:A *1473:C 0.000435748
81 *1473:A *1475:B 0
82 *1473:A *1478:B 0
83 *444:8 *1471:A0 0
84 *444:8 *1477:A_N 0
85 *444:8 *1488:D 0.000295651
86 *444:8 *448:16 0.000177726
87 *444:20 *1468:B 0.000103981
88 *444:20 *1469:C 0.000718353
89 *444:20 *1500:D 0.000105689
90 *444:20 *1502:D 0.000113067
91 *444:20 *445:36 0
92 *444:20 *448:16 0
93 *444:20 *454:26 0.000237096
94 *444:20 *465:6 1.00073e-05
95 *444:34 *1541:D 0.000345262
96 *444:34 *445:60 0
97 *444:562 *1502:D 0.000169488
98 *444:562 *454:26 0.000115575
99 *444:562 *454:39 3.55232e-05
100 *444:575 *1475:B 0
101 *444:575 *1501:D 0.000134719
102 *444:575 *454:39 0.00108108
103 *1115:A *444:575 0
104 *1136:A3 *1136:S1 0
105 *1137:A3 *1137:S1 0.000177815
106 *1138:A2 *444:40 2.65105e-05
107 *1138:A3 *1138:S1 9.87617e-05
108 *1138:A3 *444:40 3.54303e-05
109 *1138:S0 *444:40 9.71197e-05
110 *1139:A0 *1138:S1 9.87617e-05
111 *1139:A0 *444:40 1.04066e-05
112 *1141:A2 *444:168 0.000158761
113 *1142:S0 *1142:S1 1.46624e-05
114 *1143:A2 *1143:S1 5.52238e-05
115 *1143:A3 *1143:S1 5.71472e-05
116 *1143:S0 *1143:S1 0.000122921
117 *1143:S0 *444:73 0.000121649
118 *1145:A3 *1145:S1 2.59355e-05
119 *1145:A3 *444:336 6.57032e-05
120 *1147:A3 *444:216 0.00016271
121 *1148:A1 *444:520 0
122 *1148:A3 *444:503 0
123 *1150:A1 *444:298 0
124 *1151:S0 *444:61 1.18064e-05
125 *1152:A2 *1152:S1 4.18895e-05
126 *1152:A2 *444:397 9.60939e-05
127 *1152:S0 *1140:S1 5.83304e-05
128 *1153:A0 *444:520 5.52238e-05
129 *1153:S0 *444:520 0
130 *1155:A0 *444:328 0.000146523
131 *1155:A1 *444:328 5.33005e-05
132 *1155:S0 *444:336 0
133 *1156:A0 *444:192 5.33005e-05
134 *1158:A1 *444:63 0
135 *1158:A1 *444:67 0
136 *1160:A0 *1135:S1 0
137 *1160:S0 *1160:S1 0
138 *1160:S0 *444:342 0.000612212
139 *1161:A2 *444:216 0.000114123
140 *1161:A3 *1167:S1 0.000121362
141 *1161:A3 *444:216 5.80706e-06
142 *1161:S0 *1167:S1 0
143 *1162:A2 *1162:S1 1.6539e-05
144 *1162:A3 *1162:S1 0.000306317
145 *1165:A2 *1171:S1 0.000142856
146 *1165:A3 *1171:S1 5.52238e-05
147 *1165:A3 *444:172 2.82057e-05
148 *1165:S0 *444:172 0.000148903
149 *1166:A2 *1166:S1 0.000270309
150 *1166:S0 *1166:S1 0.000140801
151 *1168:A3 *444:137 0
152 *1169:A1 *444:137 1.40306e-05
153 *1170:A0 *444:397 3.69047e-06
154 *1170:A1 *444:314 0.000183713
155 *1170:A1 *444:397 1.65169e-05
156 *1170:A3 *444:328 5.33005e-05
157 *1170:S0 *444:314 4.70821e-05
158 *1170:S0 *444:397 0
159 *1171:A1 *1171:S1 9.80173e-05
160 *1171:S0 *1171:S1 8.94203e-05
161 *1172:A2 *444:137 0.000191208
162 *1172:A3 *444:137 2.65133e-05
163 *1173:S0 *444:67 0
164 *1182:S *1135:S1 0
165 *1184:A0 *444:310 0.0002253
166 *1184:A0 *444:397 4.49293e-05
167 *1188:A0 *444:310 0.000155469
168 *1189:A1 *444:168 0
169 *1189:S *444:168 6.03192e-05
170 *1191:A0 *444:298 0.000482921
171 *1191:A0 *444:304 5.52238e-05
172 *1193:A1 *1167:S1 0.00017012
173 *1194:A0 *444:172 0.000148617
174 *1194:A1 *444:168 5.33005e-05
175 *1200:S *1142:S1 1.65169e-05
176 *1206:A1 *444:127 9.25014e-06
177 *1206:A1 *444:137 8.15095e-05
178 *1214:S *1163:S1 2.09413e-05
179 *1219:S *1157:S1 9.0145e-05
180 *1219:S *444:168 1.04066e-05
181 *1225:S *1171:S1 0
182 *1229:S *1145:S1 0
183 *1229:S *444:336 0
184 *1230:A0 *444:342 2.49484e-05
185 *1230:A1 *1160:S1 0
186 *1240:A1 *444:520 0
187 *1242:A0 *444:63 0
188 *1242:A0 *444:67 0
189 *1245:A0 *444:92 0.000107503
190 *1245:A1 *444:92 0.000107503
191 *1249:A0 *1142:S1 5.52238e-05
192 *1249:S *444:137 0.000169111
193 *1249:S *444:141 6.84519e-05
194 *1254:S *444:141 0
195 *1261:A0 *444:328 4.88631e-05
196 *1262:A0 *1160:S1 0
197 *1264:A1 *444:310 0.00027095
198 *1264:A1 *444:397 0.000126439
199 *1266:S *444:34 4.32258e-05
200 *1269:A0 *444:59 0.00024409
201 *1269:A0 *444:61 1.02504e-05
202 *1270:A0 *444:61 1.1594e-05
203 *1270:A0 *444:63 0.000349201
204 *1270:A0 *444:67 1.02504e-05
205 *1270:S *444:59 0.000448644
206 *1270:S *444:61 0.00074494
207 *1275:A0 *1135:S1 0.000301007
208 *1275:A1 *1135:S1 0.000142856
209 *1275:S *1135:S1 0.00029032
210 *1275:S *1160:S1 9.92409e-05
211 *1275:S *444:342 0
212 *1277:A1 *1145:S1 4.46231e-06
213 *1278:A0 *1152:S1 1.40415e-05
214 *1280:A0 *1160:S1 0.000184507
215 *1280:A0 *444:342 0
216 *1284:A0 *1137:S1 2.04825e-05
217 *1284:A0 *444:304 1.27529e-05
218 *1284:A0 *444:310 0.000202713
219 *1285:A0 *444:168 6.62983e-05
220 *1286:A1 *444:216 0
221 *1289:A0 *444:216 0.000173272
222 *1289:A1 *444:216 0.000102581
223 *1290:A0 *1171:S1 0
224 *1290:A1 *1171:S1 0.00029839
225 *1294:A0 *1142:S1 6.16958e-05
226 *1294:A1 *444:92 0.000160507
227 *1294:S *444:127 0.000581693
228 *1295:A0 *444:271 7.04538e-05
229 *1296:S *1162:S1 0
230 *1298:A0 *1162:S1 7.17189e-05
231 *1298:S *1162:S1 0
232 *1300:A0 *444:141 0
233 *1303:A0 *444:147 0.000137983
234 *1306:A0 *444:172 1.00375e-05
235 *1306:A0 *444:192 0.000106847
236 *1307:A0 *1161:S1 5.52238e-05
237 *1307:A1 *1161:S1 5.52238e-05
238 *1308:A1 *444:141 7.49062e-05
239 *1308:S *444:141 0.000422035
240 *1311:A0 *1136:S1 0.000157412
241 *1313:A0 *444:282 0.000123762
242 *1314:A0 *1136:S1 0.000213549
243 *1314:S *1136:S1 0.000135921
244 *1318:A0 *444:127 0.000167077
245 *1321:A1 *1143:S1 0
246 *1321:S *1143:S1 0
247 *1321:S *444:73 0
248 *1321:S *444:92 0.000139251
249 *1326:A1 *1166:S1 4.58192e-05
250 *1326:A1 *444:127 1.92789e-05
251 *1326:S *1142:S1 3.17148e-05
252 *1326:S *1166:S1 9.30022e-05
253 *1326:S *444:92 0.000239478
254 *1326:S *444:94 7.39741e-05
255 *1326:S *444:127 5.33005e-05
256 *1329:D *1140:S1 0.000132231
257 *1330:CLK *444:336 0
258 *1331:CLK *1152:S1 9.75849e-06
259 *1335:D *444:314 0
260 *1335:D *444:328 0
261 *1336:D *444:310 2.78822e-05
262 *1342:D *444:172 0.000194436
263 *1345:D *1142:S1 3.69047e-06
264 *1347:D *1153:S1 2.55587e-05
265 *1347:D *444:520 0.000119358
266 *1348:CLK *1157:S1 0.000126203
267 *1351:CLK *444:127 0.000207766
268 *1352:D *444:34 4.19624e-06
269 *1352:D *444:40 4.60232e-06
270 *1359:CLK *444:92 5.06983e-05
271 *1359:D *1173:S1 2.40379e-05
272 *1359:D *444:67 0
273 *1359:D *444:73 6.87841e-05
274 *1361:D *1141:S1 0
275 *1361:D *444:141 2.16719e-05
276 *1361:D *444:246 4.13573e-05
277 *1362:CLK *444:206 0.000102207
278 *1362:CLK *444:216 0
279 *1362:D *444:206 0.000141981
280 *1364:D *444:192 1.40306e-05
281 *1364:D *444:206 0.000184507
282 *1371:CLK *444:314 0
283 *1371:CLK *444:397 6.05161e-06
284 *1371:D *444:397 0.000275209
285 *1378:CLK *444:520 0
286 *1378:D *444:520 6.53227e-05
287 *1383:D *444:92 3.67257e-05
288 *1389:D *1162:S1 7.86746e-05
289 *1391:D *444:141 0.000157906
290 *1393:D *1140:S1 9.22054e-05
291 *1395:D *1152:S1 0
292 *1395:D *444:397 0
293 *1396:D *444:328 5.57967e-05
294 *1396:D *444:336 0.000108111
295 *1400:D *444:40 0
296 *1401:CLK *1143:S1 0
297 *1405:CLK *1136:S1 0.000174805
298 *1416:D *444:304 0
299 *1416:D *444:310 0
300 *1417:D *444:168 1.11038e-05
301 *1425:D *444:127 4.62395e-05
302 *1428:D *444:271 0.000155484
303 *1433:D *444:147 7.78179e-05
304 *1433:D *444:168 0.000363257
305 *1442:D *444:271 9.68654e-05
306 *1442:D *444:282 4.92638e-05
307 *1444:CLK *1157:S1 6.09889e-05
308 *1444:D *1157:S1 0.000136194
309 *1447:CLK *444:137 0.000261472
310 *1454:D *444:127 5.33005e-05
311 *1455:D *444:92 1.85861e-05
312 *1457:A_N *444:20 0
313 *1487:CLK *444:20 9.79654e-05
314 *1502:CLK *1462:A 1.04232e-05
315 *1509:RESET_B *1473:A 2.52688e-05
316 *1541:CLK *444:34 5.30209e-05
317 *1:21 *444:34 0.000182331
318 *2:384 *444:34 0
319 *2:392 *444:34 0
320 *50:68 *444:575 0
321 *50:70 *444:575 0
322 *50:72 *444:575 0
323 *50:81 *444:562 0
324 *50:81 *444:575 0
325 *50:89 *444:20 0
326 *68:28 *444:503 0
327 *69:12 *444:34 0.000274288
328 *69:115 *444:20 1.65169e-05
329 *75:34 *444:20 8.08488e-05
330 *75:40 *444:20 5.62995e-05
331 *77:22 *1464:A1 6.53244e-05
332 *81:20 *444:34 4.36551e-06
333 *81:20 *444:40 3.55578e-05
334 *81:28 *1163:S1 5.33005e-05
335 *85:14 *444:168 6.34697e-05
336 *85:20 *444:168 0.000102207
337 *87:19 *1162:S1 0.000178663
338 *87:43 *1162:S1 0.000249002
339 *87:43 *444:282 0.000127324
340 *87:49 *1146:S1 0
341 *87:49 *444:271 7.80714e-06
342 *87:79 *1162:S1 9.25014e-06
343 *88:16 *444:127 0
344 *88:22 *444:127 0
345 *89:20 *444:92 9.78079e-05
346 *90:10 *444:520 0
347 *92:26 *444:328 0
348 *92:97 *444:336 0
349 *100:42 *1143:S1 0
350 *101:16 *1166:S1 0.000139907
351 *104:24 *444:34 0.000227539
352 *104:49 *444:40 0.000159852
353 *104:82 *1136:S1 0.000150272
354 *104:163 *1135:S1 8.03176e-05
355 *105:16 *444:34 1.08601e-05
356 *105:48 *1142:S1 5.72024e-05
357 *105:58 *1157:S1 0
358 *105:66 *1157:S1 9.40041e-05
359 *105:76 *444:246 8.07951e-05
360 *105:76 *444:271 0.00015134
361 *106:36 *1140:S1 5.33005e-05
362 *106:115 *444:520 0
363 *106:117 *444:520 0
364 *106:123 *444:503 4.15161e-05
365 *106:165 *444:520 1.41026e-05
366 *106:180 *444:271 2.82057e-05
367 *106:180 *444:282 3.34687e-05
368 *107:14 *444:59 0.000330239
369 *107:18 *444:59 0
370 *107:62 *444:520 4.88637e-05
371 *107:96 *1162:S1 5.39629e-06
372 *108:10 *444:59 0.000326738
373 *108:16 *444:61 2.81691e-05
374 *108:16 *444:63 2.31886e-05
375 *108:70 *444:206 4.57932e-05
376 *108:194 *1140:S1 0
377 *108:211 *444:328 2.40603e-05
378 *109:131 *1136:S1 0
379 *109:196 *1167:S1 0.000230158
380 *109:196 *444:216 2.24646e-05
381 *110:16 *1136:S1 0
382 *110:36 *444:127 6.25963e-05
383 *110:91 *444:141 0
384 *110:97 *444:137 0
385 *114:18 *444:61 0.000329892
386 *114:26 *444:61 4.99963e-05
387 *114:47 *1173:S1 8.71227e-05
388 *114:47 *444:73 0.000233305
389 *114:47 *444:92 0
390 *114:49 *1142:S1 2.37761e-05
391 *114:49 *1166:S1 7.90393e-05
392 *114:49 *444:94 2.97756e-05
393 *114:60 *444:127 0.000158459
394 *114:74 *1172:S1 8.36075e-05
395 *114:74 *444:137 2.13481e-06
396 *114:99 *444:172 4.90803e-05
397 *114:133 *444:206 0
398 *164:16 *444:304 0
399 *257:10 *1140:S1 0
400 *261:14 *444:271 0
401 *261:14 *444:282 0
402 *261:24 *1157:S1 0.000269798
403 *264:16 *1143:S1 9.90431e-05
404 *264:16 *444:67 0
405 *265:8 *444:304 0
406 *265:8 *444:310 0
407 *265:8 *444:328 0.000836235
408 *267:28 *1146:S1 0
409 *268:22 *444:503 0.000230475
410 *268:22 *444:520 5.59903e-05
411 *271:28 *1136:S1 0
412 *273:10 *444:206 8.17708e-05
413 *273:10 *444:328 0.000745655
414 *273:26 *444:192 6.71755e-05
415 *277:10 *444:328 0
416 *277:30 *1137:S1 0
417 *277:30 *1167:S1 0
418 *280:16 *1163:S1 5.52302e-05
419 *283:8 *444:172 0
420 *283:8 *444:206 0.000223593
421 *283:22 *1171:S1 7.9692e-05
422 *285:12 *444:304 0.000257535
423 *285:12 *444:310 0.000111872
424 *285:26 *444:304 1.18064e-05
425 *288:18 *444:67 6.58195e-05
426 *290:19 *444:310 0
427 *290:42 *444:328 2.66026e-05
428 *293:32 *1167:S1 0
429 *293:32 *444:216 6.05269e-05
430 *293:38 *444:206 0
431 *293:38 *444:216 0.000233468
432 *293:59 *444:168 7.65804e-05
433 *294:12 *1136:S1 0.000246794
434 *298:20 *1136:S1 0
435 *298:20 *1163:S1 5.33005e-05
436 *298:26 *1163:S1 0.000248782
437 *299:45 *444:192 0.000101867
438 *299:49 *444:172 7.79781e-06
439 *299:49 *444:192 3.88892e-05
440 *301:70 *444:336 0
441 *303:14 *1163:S1 0.000271247
442 *303:40 *444:92 1.40131e-05
443 *305:22 *444:298 0.000438781
444 *305:32 *444:141 0.000464265
445 *305:32 *444:246 6.49606e-05
446 *305:32 *444:271 2.16719e-05
447 *305:34 *444:141 0.000123668
448 *306:45 *444:328 0
449 *306:45 *444:336 0.000229006
450 *306:45 *444:342 0.000348075
451 *307:34 *1136:S1 0.00034489
452 *307:34 *444:520 0
453 *308:12 *444:314 0
454 *308:12 *444:328 0
455 *308:46 *444:336 0
456 *308:54 *444:336 0.000214134
457 *309:8 *1137:S1 0
458 *309:24 *444:298 8.36572e-05
459 *309:24 *444:304 9.90367e-05
460 *310:18 *1162:S1 0
461 *310:18 *444:271 0
462 *310:24 *444:271 0
463 *310:39 *444:271 0
464 *311:14 *1162:S1 6.11101e-05
465 *311:14 *444:282 0.000205979
466 *311:16 *444:298 0
467 *311:34 *444:216 0.00071348
468 *311:47 *444:216 0
469 *311:73 *444:147 0.00012109
470 *311:73 *444:168 8.03013e-05
471 *312:32 *444:271 0
472 *312:46 *444:127 0.00018616
473 *312:46 *444:137 8.15095e-05
474 *312:120 *1136:S1 9.54385e-05
475 *321:10 *444:73 2.73444e-05
476 *329:8 *444:397 8.32242e-05
477 *334:14 *444:328 0
478 *339:10 *1142:S1 2.8266e-06
479 *344:12 *444:141 1.19309e-05
480 *347:10 *1142:S1 8.32242e-05
481 *350:8 *1157:S1 6.34045e-05
482 *356:10 *444:336 0.000178656
483 *362:12 *1135:S1 4.46231e-06
484 *367:10 *1160:S1 1.02504e-05
485 *368:10 *1167:S1 0.000157906
486 *372:8 *444:503 0
487 *381:10 *444:298 6.13151e-05
488 *382:8 *444:192 8.32171e-05
489 *387:10 *444:168 0
490 *390:10 *444:192 0
491 *394:6 *444:40 1.40415e-05
492 *398:12 *444:67 0
493 *402:12 *444:40 0.000100142
494 *405:10 *444:61 0.000105696
495 *406:10 *444:67 0.000105696
496 *410:10 *444:304 4.81157e-05
497 *421:12 *444:304 0.000353432
498 *429:12 *444:520 0
499 *436:10 *444:271 0.000157899
500 *436:10 *444:282 9.25014e-06
501 *437:10 *1136:S1 1.76135e-05
502 *441:10 *444:127 2.39876e-05
503 *442:12 *444:20 0.000353086
504 *442:33 *444:20 2.87555e-06
505 *442:33 *444:34 0.000810909
506 *442:33 *444:40 0.000142434
507 *442:58 *1163:S1 0.000141622
508 *442:58 *444:40 2.51343e-06
509 *442:145 *1140:S1 0.00118621
510 *443:30 *444:34 0.00020546
511 *443:92 *1157:S1 7.08063e-05
*RES
1 *1488:Q *444:4 9.3 
2 *444:4 *444:8 13.7822 
3 *444:8 *444:20 35.0695 
4 *444:20 *444:34 45.8719 
5 *444:34 *444:40 13.7822 
6 *444:40 *1163:S1 30.8496 
7 *444:40 *444:59 22.7674 
8 *444:59 *444:61 14.2699 
9 *444:61 *444:63 6.27478 
10 *444:63 *444:67 24.8714 
11 *444:67 *444:73 7.20301 
12 *444:73 *1173:S1 11.2059 
13 *444:73 *444:92 33.7229 
14 *444:92 *444:94 1.43565 
15 *444:94 *1142:S1 19.2456 
16 *444:94 *444:127 40.7229 
17 *444:127 *444:137 17.1238 
18 *444:137 *444:141 25.2922 
19 *444:141 *444:147 13.1584 
20 *444:147 *1141:S1 14.8149 
21 *444:147 *444:168 26.1783 
22 *444:168 *444:172 13.9307 
23 *444:172 *1171:S1 20.8595 
24 *444:172 *1165:S1 9.3 
25 *444:168 *444:192 15.7377 
26 *444:192 *444:206 35.1536 
27 *444:206 *444:216 28.0892 
28 *444:216 *1161:S1 14.5426 
29 *444:216 *1167:S1 27.0179 
30 *444:206 *1147:S1 9.3 
31 *444:192 *1156:S1 9.3 
32 *444:141 *444:246 3.53962 
33 *444:246 *1157:S1 40.2753 
34 *444:246 *444:271 16.1634 
35 *444:271 *1146:S1 15.6812 
36 *444:271 *444:282 9.00995 
37 *444:282 *444:298 20.0694 
38 *444:298 *444:304 26.3937 
39 *444:304 *444:310 18.5521 
40 *444:310 *444:314 9.22775 
41 *444:314 *444:328 33.7031 
42 *444:328 *444:336 24.0991 
43 *444:336 *444:342 19.6931 
44 *444:342 *1160:S1 25.008 
45 *444:342 *1135:S1 24.7456 
46 *444:336 *1145:S1 10.6119 
47 *444:328 *1155:S1 9.3 
48 *444:314 *1170:S1 9.3 
49 *444:310 *444:397 17.3961 
50 *444:397 *1140:S1 39.414 
51 *444:397 *1152:S1 12.3198 
52 *444:304 *1137:S1 17.9461 
53 *444:298 *1150:S1 9.3 
54 *444:282 *1162:S1 31.1763 
55 *444:137 *1168:S1 9.3 
56 *444:127 *1172:S1 15.7059 
57 *444:92 *1166:S1 26.3743 
58 *444:67 *1143:S1 15.7357 
59 *444:63 *1158:S1 13.8 
60 *444:61 *444:503 17.3182 
61 *444:503 *1148:S1 9.3 
62 *444:503 *444:520 27.8615 
63 *444:520 *1153:S1 11.2059 
64 *444:520 *1136:S1 43.3001 
65 *444:59 *1151:S1 13.8 
66 *444:34 *1138:S1 15.1119 
67 *444:8 *444:562 7.97034 
68 *444:562 *1462:A 14.8149 
69 *444:562 *444:575 23.1882 
70 *444:575 *1464:A1 14.0277 
71 *444:575 *1473:A 20.3149 
72 *444:4 *1456:A 11.4782 
*END

*D_NET *445 0.0290579
*CONN
*I *1473:B I *D sky130_fd_sc_hd__and3_1
*I *1464:B1 I *D sky130_fd_sc_hd__a21oi_1
*I *1466:A I *D sky130_fd_sc_hd__xnor3_1
*I *1463:A I *D sky130_fd_sc_hd__xnor2_1
*I *1159:S0 I *D sky130_fd_sc_hd__mux4_2
*I *1144:S0 I *D sky130_fd_sc_hd__mux4_2
*I *1174:S0 I *D sky130_fd_sc_hd__mux4_2
*I *1169:S0 I *D sky130_fd_sc_hd__mux4_2
*I *1149:S1 I *D sky130_fd_sc_hd__mux4_2
*I *1164:S0 I *D sky130_fd_sc_hd__mux4_2
*I *1154:S0 I *D sky130_fd_sc_hd__mux4_2
*I *1139:S1 I *D sky130_fd_sc_hd__mux4_2
*I *1489:Q O *D sky130_fd_sc_hd__dfrtp_1
*CAP
1 *1473:B 0
2 *1464:B1 6.24667e-05
3 *1466:A 0.000149778
4 *1463:A 2.54171e-05
5 *1159:S0 0
6 *1144:S0 0.000503313
7 *1174:S0 0
8 *1169:S0 0.000113537
9 *1149:S1 2.8586e-05
10 *1164:S0 0.00032527
11 *1154:S0 0.00112475
12 *1139:S1 3.75929e-05
13 *1489:Q 9.26566e-05
14 *445:160 0.000211395
15 *445:154 0.000975342
16 *445:150 0.000877797
17 *445:137 0.000719207
18 *445:116 0.00115981
19 *445:80 0.00131583
20 *445:60 0.00158169
21 *445:36 0.00214198
22 *445:26 0.00161144
23 *445:22 0.000819678
24 *445:20 0.000880963
25 *445:10 0.000465952
26 *1463:A *1477:A_N 2.89016e-05
27 *1464:B1 *1464:A2 9.90367e-05
28 *1464:B1 *1474:A 0
29 *1464:B1 *1499:D 5.17614e-05
30 *1466:A *1466:B 5.52302e-05
31 *1466:A *456:8 0
32 *445:10 *1478:C 0.000275094
33 *445:10 *461:12 0.000156191
34 *445:20 *1464:A2 0.000181803
35 *445:20 *1473:C 0.000871133
36 *445:20 *1474:B 1.25805e-06
37 *445:20 *1475:A 2.09915e-05
38 *445:20 *1499:D 2.8266e-06
39 *445:20 *510:12 0
40 *445:22 *1506:D 7.63214e-05
41 *445:22 *454:39 0
42 *445:22 *510:12 0
43 *445:26 *1463:B 0
44 *445:26 *1466:C 0
45 *445:26 *510:12 0
46 *445:36 *1463:B 0
47 *445:36 *1492:D 0
48 *445:36 *1505:D 0.000214658
49 *445:36 *1507:D 0.00013059
50 *445:36 *1510:A 0
51 *445:36 *1515:A 0.000217141
52 *445:36 *1520:C 0
53 *445:36 *1524:B 1.05901e-05
54 *445:36 *1525:A 0.00030182
55 *445:36 *1537:D 0
56 *445:36 *454:26 0
57 *445:36 *492:6 0
58 *445:36 *492:18 0
59 *445:36 *503:8 0.00014183
60 *445:36 *508:22 0
61 *445:36 *513:23 1.57931e-05
62 *445:36 *514:10 5.33005e-05
63 *445:60 *1524:B 0
64 *445:60 *1535:D 0
65 *445:60 *1540:D 0.000335867
66 *445:60 *1541:D 2.76813e-05
67 *445:60 *491:12 0.000244597
68 *1139:A0 *445:80 0.000263294
69 *1139:A1 *1139:S1 9.41642e-05
70 *1139:A1 *445:80 9.41642e-05
71 *1139:A2 *1139:S1 5.33005e-05
72 *1139:A2 *1154:S0 3.17148e-05
73 *1139:S0 *445:80 4.08796e-05
74 *1144:A2 *1144:S0 0.000144746
75 *1144:A2 *445:160 3.32631e-05
76 *1154:A1 *1154:S0 3.34295e-05
77 *1154:A1 *445:116 0
78 *1154:A2 *445:116 0.000604179
79 *1154:S1 *445:116 9.39803e-05
80 *1159:A0 *445:150 0
81 *1159:A1 *445:150 0
82 *1159:A1 *445:154 0
83 *1162:A2 *1164:S0 8.32242e-05
84 *1162:S0 *1164:S0 0.000255823
85 *1162:S0 *445:137 0.000255024
86 *1166:A1 *1144:S0 0
87 *1166:A2 *1144:S0 0
88 *1166:A3 *1144:S0 0.000315152
89 *1166:S1 *1144:S0 0
90 *1169:A0 *1169:S0 1.39726e-05
91 *1169:S1 *1169:S0 0.000270526
92 *1174:A0 *1169:S0 0.000155484
93 *1174:A1 *1169:S0 1.17968e-05
94 *1174:A1 *445:160 0
95 *1199:S *1154:S0 3.43988e-06
96 *1199:S *445:80 0
97 *1214:A1 *445:80 0
98 *1215:S *1144:S0 5.62164e-05
99 *1238:A1 *445:60 0.00031249
100 *1238:A1 *445:80 1.92789e-05
101 *1238:S *445:60 3.46775e-05
102 *1251:A0 *445:116 2.28499e-05
103 *1251:A1 *445:116 1.39841e-05
104 *1266:A0 *445:60 5.19842e-06
105 *1296:S *445:116 0
106 *1315:A0 *445:150 0.000144512
107 *1315:A0 *445:154 0.000231873
108 *1316:A0 *445:137 0.000150476
109 *1348:D *445:154 0
110 *1376:D *445:60 0.000154235
111 *1376:D *445:80 0
112 *1405:D *1154:S0 7.90187e-05
113 *1406:D *445:154 0
114 *1427:D *445:116 0.000148166
115 *1427:D *445:150 0
116 *1443:D *445:116 1.58163e-05
117 *1448:CLK *445:80 6.09889e-05
118 *1457:A_N *445:36 0
119 *1457:B *445:36 7.08679e-06
120 *1459:B *445:36 9.33978e-07
121 *1464:A1 *1464:B1 0.00014285
122 *1482:CLK *445:22 0.000157437
123 *1505:CLK *445:36 1.85258e-05
124 *1505:RESET_B *445:36 4.96155e-05
125 *1507:CLK *1463:A 0
126 *1507:CLK *445:36 0
127 *1540:RESET_B *445:60 2.77173e-05
128 *1541:CLK *445:60 0.000136622
129 *2:376 *445:36 0
130 *2:378 *445:36 0
131 *2:384 *445:36 0
132 *2:392 *445:36 0
133 *2:392 *445:60 9.41642e-05
134 *68:20 *1154:S0 0.000359463
135 *68:216 *1154:S0 7.84841e-05
136 *75:34 *445:36 2.9729e-05
137 *76:8 *1466:A 2.42516e-05
138 *76:10 *445:26 7.71366e-05
139 *76:12 *445:26 5.11571e-05
140 *76:12 *445:36 0
141 *76:16 *445:36 0
142 *76:58 *445:22 7.21654e-05
143 *76:58 *445:26 2.78729e-05
144 *77:8 *445:20 0.000332901
145 *77:22 *1464:B1 8.27184e-06
146 *77:22 *445:20 2.61337e-05
147 *77:22 *445:22 5.66455e-05
148 *81:32 *445:80 0.000122155
149 *81:34 *445:80 5.48376e-05
150 *81:69 *445:80 2.58997e-05
151 *88:110 *445:154 0
152 *90:34 *445:150 0
153 *90:51 *445:150 0
154 *90:57 *445:137 5.61284e-05
155 *90:57 *445:150 0
156 *94:18 *445:60 9.06586e-05
157 *94:28 *445:60 0.000332323
158 *100:20 *1169:S0 7.43578e-06
159 *101:16 *1144:S0 0
160 *104:55 *445:60 3.53716e-05
161 *104:66 *445:80 0
162 *104:82 *1154:S0 0.000111103
163 *105:58 *1169:S0 0
164 *105:58 *445:154 6.5185e-05
165 *105:58 *445:160 0
166 *106:115 *1154:S0 0
167 *106:115 *445:80 1.00375e-05
168 *107:62 *1154:S0 0
169 *107:62 *445:116 7.31177e-05
170 *107:72 *445:116 0.000122354
171 *107:80 *445:116 3.67257e-05
172 *107:96 *1164:S0 6.23129e-05
173 *107:96 *445:116 0.000283487
174 *109:131 *445:116 0
175 *109:151 *1164:S0 5.70616e-05
176 *110:26 *445:154 0
177 *110:157 *1144:S0 0.000107988
178 *111:47 *1169:S0 1.48042e-05
179 *267:28 *1149:S1 2.89114e-05
180 *267:28 *445:150 7.32955e-05
181 *268:22 *445:150 5.52238e-05
182 *269:16 *1164:S0 5.56564e-05
183 *269:16 *445:116 0.000133867
184 *270:24 *445:116 0
185 *271:28 *1154:S0 0.000367471
186 *296:20 *445:116 4.89268e-05
187 *296:20 *445:137 0
188 *296:20 *445:150 0.000135709
189 *296:26 *445:150 0
190 *296:32 *1169:S0 0
191 *298:20 *1139:S1 3.06878e-06
192 *298:20 *445:80 4.38409e-05
193 *307:100 *445:116 0
194 *310:12 *1164:S0 1.69115e-05
195 *312:16 *1164:S0 7.17603e-05
196 *312:16 *445:137 0.00012729
197 *312:26 *445:137 0.000153062
198 *370:6 *445:60 0.000133564
199 *428:8 *445:150 0
200 *430:10 *445:154 0
201 *438:10 *445:154 0.000299995
202 *442:58 *445:80 8.9403e-05
203 *443:80 *1164:S0 0.000459967
204 *443:92 *1169:S0 3.34366e-05
205 *443:92 *445:154 0.000113691
206 *443:92 *445:160 0.000124469
207 *444:20 *445:36 0
208 *444:34 *445:60 0
*RES
1 *1489:Q *445:10 23.102 
2 *445:10 *445:20 21.109 
3 *445:20 *445:22 16.1634 
4 *445:22 *445:26 7.64855 
5 *445:26 *445:36 47.619 
6 *445:36 *445:60 46.5447 
7 *445:60 *445:80 37.1635 
8 *445:80 *1139:S1 10.6119 
9 *445:80 *1154:S0 26.5001 
10 *1154:S0 *445:116 34.3838 
11 *445:116 *1164:S0 23.9011 
12 *445:116 *445:137 18.4307 
13 *445:137 *1149:S1 10.0426 
14 *445:137 *445:150 19.5001 
15 *445:150 *445:154 18.9803 
16 *445:154 *445:160 8.08913 
17 *445:160 *1169:S0 10.255 
18 *445:160 *1174:S0 4.5 
19 *445:154 *1144:S0 16.2501 
20 *445:150 *1159:S0 4.5 
21 *445:26 *1463:A 14.5426 
22 *445:22 *1466:A 17.3891 
23 *445:20 *1464:B1 16.8198 
24 *445:10 *1473:B 9.3 
*END

*D_NET *446 0.00132705
*CONN
*I *1495:D I *D sky130_fd_sc_hd__dfrtp_1
*I *1481:Q O *D sky130_fd_sc_hd__dfrtp_1
*CAP
1 *1495:D 0.000516906
2 *1481:Q 0.000516906
3 *1495:D *1697:S 4.84703e-05
4 *1495:D *471:18 5.52238e-05
5 *1481:RESET_B *1495:D 0.000138106
6 *1495:CLK *1495:D 0
7 *74:16 *1495:D 0
8 *443:20 *1495:D 5.14413e-05
*RES
1 *1481:Q *1495:D 42.7238 
*END

*D_NET *447 0.00406326
*CONN
*I *1496:D I *D sky130_fd_sc_hd__dfrtp_1
*I *1482:Q O *D sky130_fd_sc_hd__dfrtp_1
*CAP
1 *1496:D 0.000563552
2 *1482:Q 0.000878079
3 *447:12 0.00144163
4 *1496:D *1528:A 0
5 *1496:D *1532:B 0
6 *1496:D *1532:C 0
7 *1496:D *1534:D 0.000162608
8 *1496:D *1536:D 0.000103217
9 *1496:D *1546:A 1.58213e-06
10 *447:12 *1472:B 0
11 *447:12 *1475:B 0
12 *447:12 *1478:A 0
13 *447:12 *1478:B 0
14 *447:12 *1478:D 2.72859e-05
15 *447:12 *1482:D 0.0001156
16 *447:12 *1501:D 0
17 *447:12 *1509:D 0
18 *447:12 *1528:A 0
19 *447:12 *470:12 0
20 *447:12 *498:6 0
21 *447:12 *510:12 0.000105019
22 *447:12 *674:12 0
23 *1482:CLK *447:12 4.58194e-05
24 *1496:RESET_B *1496:D 0.000352304
25 *1506:CLK *447:12 7.40153e-05
26 *1506:RESET_B *447:12 2.52688e-05
27 *1536:CLK *1496:D 2.65319e-06
28 *1536:RESET_B *1496:D 0.000164622
*RES
1 *1482:Q *447:12 43.0278 
2 *447:12 *1496:D 27.7159 
*END

*D_NET *448 0.00291245
*CONN
*I *1497:D I *D sky130_fd_sc_hd__dfrtp_1
*I *1483:Q O *D sky130_fd_sc_hd__dfrtp_1
*CAP
1 *1497:D 0.000401956
2 *1483:Q 0.000683539
3 *448:16 0.0010855
4 *1497:D *1507:D 1.55953e-05
5 *1497:D *1517:A 0
6 *1497:D *1522:B 3.18676e-05
7 *1497:D *1537:D 0
8 *1497:D *493:14 0
9 *448:16 *1477:A_N 7.91941e-05
10 *448:16 *1477:B 7.98603e-05
11 *448:16 *1502:D 0.000157009
12 *448:16 *1507:D 3.67142e-05
13 *1488:CLK *448:16 0
14 *1507:CLK *1497:D 0
15 *1507:CLK *448:16 0
16 *1507:RESET_B *448:16 1.58801e-05
17 *50:85 *448:16 6.16958e-05
18 *50:87 *448:16 5.61377e-05
19 *50:89 *448:16 2.97756e-05
20 *444:8 *448:16 0.000177726
21 *444:20 *448:16 0
*RES
1 *1483:Q *448:16 41.3694 
2 *448:16 *1497:D 19.7208 
*END

*D_NET *449 0.0027564
*CONN
*I *1498:D I *D sky130_fd_sc_hd__dfrtp_1
*I *1484:Q O *D sky130_fd_sc_hd__dfrtp_1
*CAP
1 *1498:D 0.00084422
2 *1484:Q 0.00084422
3 *1498:D *1476:A 0
4 *1498:D *1484:D 3.97657e-05
5 *1498:D *463:8 0.000369525
6 *1484:CLK *1498:D 9.76689e-05
7 *1484:RESET_B *1498:D 4.92917e-05
8 *1508:RESET_B *1498:D 0.000223215
9 *1770:CLK *1498:D 0.0001863
10 *50:19 *1498:D 0.000102197
*RES
1 *1484:Q *1498:D 48.5506 
*END

*D_NET *450 0.00506854
*CONN
*I *1465:A I *D sky130_fd_sc_hd__xnor2_1
*I *1474:A I *D sky130_fd_sc_hd__xor2_1
*I *1499:D I *D sky130_fd_sc_hd__dfrtp_1
*I *1485:Q O *D sky130_fd_sc_hd__dfrtp_1
*CAP
1 *1465:A 0.000179885
2 *1474:A 2.77422e-05
3 *1499:D 0.00060177
4 *1485:Q 0.000629281
5 *450:18 0.000790834
6 *450:16 0.000970488
7 *1465:A *1465:B 0.00060021
8 *1465:A *1484:D 0.000126218
9 *1465:A *474:10 8.13599e-05
10 *1474:A *1464:A2 0
11 *1474:A *1479:A 5.39629e-06
12 *1499:D *1494:D 0
13 *1499:D *1509:D 0
14 *1499:D *510:12 0.000207693
15 *1499:D *522:18 0.000113286
16 *1499:D *527:14 0
17 *450:16 *1479:A 0
18 *450:16 *1484:D 0
19 *450:16 *1485:D 2.89016e-05
20 *450:16 *1508:D 7.55078e-05
21 *450:16 *1529:A 6.05161e-06
22 *450:16 *1529:B 0
23 *450:16 *510:12 0.000144773
24 *450:18 *1465:B 2.25103e-05
25 *450:18 *510:12 0.000319483
26 *1464:B1 *1474:A 0
27 *1464:B1 *1499:D 5.17614e-05
28 *1484:RESET_B *450:16 0
29 *1485:CLK *450:16 5.06983e-05
30 *1499:CLK *1499:D 3.18676e-05
31 *1503:CLK *1465:A 0
32 *1770:CLK *450:16 0
33 *77:22 *1499:D 0
34 *77:40 *1499:D 0
35 *77:49 *450:18 0
36 *77:60 *1465:A 0
37 *77:60 *450:16 0
38 *77:60 *450:18 0
39 *77:71 *1465:A 0
40 *445:20 *1499:D 2.8266e-06
*RES
1 *1485:Q *450:16 31.2382 
2 *450:16 *450:18 6.27478 
3 *450:18 *1499:D 31.1763 
4 *450:18 *1474:A 14.5426 
5 *450:16 *1465:A 24.2827 
*END

*D_NET *451 0.00107516
*CONN
*I *1471:A0 I *D sky130_fd_sc_hd__mux2_1
*I *1470:A I *D sky130_fd_sc_hd__xnor2_1
*I *1456:Y O *D sky130_fd_sc_hd__clkinv_1
*CAP
1 *1471:A0 0.00016427
2 *1470:A 0.000144304
3 *1456:Y 3.3965e-05
4 *451:8 0.000342539
5 *1470:A *1461:A 6.78055e-06
6 *1470:A *1471:S 1.59689e-05
7 *1470:A *1477:B 0.000228443
8 *1470:A *454:12 6.4915e-05
9 *1471:A0 *1477:B 0
10 *1471:A0 *1488:D 0
11 *1471:A0 *467:10 0
12 *451:8 *1477:B 7.39741e-05
13 *1456:A *1471:A0 0
14 *444:8 *1471:A0 0
*RES
1 *1456:Y *451:8 15.2357 
2 *451:8 *1470:A 19.3446 
3 *451:8 *1471:A0 17.3891 
*END

*D_NET *452 0.000257841
*CONN
*I *1467:B I *D sky130_fd_sc_hd__xnor2_1
*I *1457:Y O *D sky130_fd_sc_hd__nand2b_1
*CAP
1 *1467:B 2.34001e-05
2 *1457:Y 2.34001e-05
3 *1467:B *1505:D 7.63214e-05
4 *103:38 *1467:B 0.000134719
*RES
1 *1457:Y *1467:B 29.8772 
*END

*D_NET *453 0.000844791
*CONN
*I *1460:B I *D sky130_fd_sc_hd__xor2_1
*I *1458:Y O *D sky130_fd_sc_hd__nand3b_1
*CAP
1 *1460:B 0.000129989
2 *1458:Y 0.000129989
3 *1460:B *471:18 0
4 *102:46 *1460:B 0.000133012
5 *103:25 *1460:B 0.000134719
6 *443:20 *1460:B 0.000317082
*RES
1 *1458:Y *1460:B 34.0357 
*END

*D_NET *454 0.00903558
*CONN
*I *1470:B I *D sky130_fd_sc_hd__xnor2_1
*I *1473:C I *D sky130_fd_sc_hd__and3_1
*I *1464:A2 I *D sky130_fd_sc_hd__a21oi_1
*I *1462:B I *D sky130_fd_sc_hd__nor2_1
*I *1459:X O *D sky130_fd_sc_hd__and4b_1
*CAP
1 *1470:B 0
2 *1473:C 0.000234986
3 *1464:A2 8.21355e-05
4 *1462:B 2.73544e-05
5 *1459:X 0.000427859
6 *454:39 0.000632949
7 *454:26 0.00106015
8 *454:12 0.00114483
9 *1462:B *456:8 3.69047e-06
10 *1464:A2 *1474:B 0
11 *1473:C *1474:B 0
12 *1473:C *1478:B 0
13 *454:12 *1461:A 0
14 *454:12 *1471:S 0
15 *454:12 *1477:B 5.71472e-05
16 *454:12 *455:25 0
17 *454:12 *466:8 0
18 *454:12 *467:10 6.87574e-05
19 *454:26 *1461:A 0
20 *454:26 *1469:B 2.13202e-05
21 *454:26 *1469:C 9.90431e-05
22 *454:26 *1477:B 0.000444739
23 *454:26 *1480:D 0
24 *454:26 *466:8 0
25 *454:39 *1475:B 0
26 *1116:A *454:39 0.000182033
27 *1464:A1 *1464:A2 8.40933e-05
28 *1464:A1 *1473:C 1.98839e-05
29 *1464:B1 *1464:A2 9.90367e-05
30 *1470:A *454:12 6.4915e-05
31 *1473:A *1473:C 0.000435748
32 *1474:A *1464:A2 0
33 *1480:CLK *454:26 0
34 *1482:CLK *454:39 0.000404415
35 *1502:CLK *1462:B 5.33005e-05
36 *76:10 *454:26 5.58941e-05
37 *76:10 *454:39 0.000144519
38 *76:12 *454:26 0.000157191
39 *76:16 *454:26 0.000205271
40 *76:58 *454:39 0.000255059
41 *77:22 *454:39 4.7054e-05
42 *102:12 *454:12 0
43 *444:20 *454:26 0.000237096
44 *444:562 *454:26 0.000115575
45 *444:562 *454:39 3.55232e-05
46 *444:575 *454:39 0.00108108
47 *445:20 *1464:A2 0.000181803
48 *445:20 *1473:C 0.000871133
49 *445:22 *454:39 0
50 *445:36 *454:26 0
*RES
1 *1459:X *454:12 30.7506 
2 *454:12 *454:26 31.0843 
3 *454:26 *1462:B 14.5426 
4 *454:26 *454:39 24.8714 
5 *454:39 *1464:A2 12.8891 
6 *454:39 *1473:C 22.2951 
7 *454:12 *1470:B 9.3 
*END

*D_NET *455 0.00353608
*CONN
*I *1471:S I *D sky130_fd_sc_hd__mux2_1
*I *1461:A I *D sky130_fd_sc_hd__clkinv_1
*I *1468:A I *D sky130_fd_sc_hd__xnor2_1
*I *1460:X O *D sky130_fd_sc_hd__xor2_1
*CAP
1 *1471:S 0.000131191
2 *1461:A 6.29737e-05
3 *1468:A 0.000216454
4 *1460:X 0
5 *455:25 0.000819639
6 *455:4 0.000841928
7 *1461:A *466:8 3.5566e-05
8 *1468:A *1468:B 0
9 *1468:A *1487:D 2.89016e-05
10 *1468:A *471:18 5.23057e-05
11 *1471:S *1469:A 5.01876e-05
12 *1471:S *1477:B 8.48609e-05
13 *1471:S *467:10 7.40249e-05
14 *1471:S *470:12 0
15 *455:25 *1469:A 0.000156176
16 *455:25 *1487:D 2.4065e-05
17 *1459:C *455:25 6.93295e-05
18 *1459:D *455:25 0
19 *1470:A *1461:A 6.78055e-06
20 *1470:A *1471:S 1.59689e-05
21 *1487:CLK *1468:A 9.90431e-05
22 *50:99 *1468:A 9.66673e-05
23 *50:99 *455:25 0
24 *69:115 *1468:A 0.000226513
25 *102:12 *455:25 0.000219385
26 *442:12 *1468:A 4.97621e-05
27 *442:33 *1468:A 0
28 *443:14 *1468:A 0
29 *443:14 *455:25 0.000174361
30 *454:12 *1461:A 0
31 *454:12 *1471:S 0
32 *454:12 *455:25 0
33 *454:26 *1461:A 0
*RES
1 *1460:X *455:4 9.3 
2 *455:4 *1468:A 27.3099 
3 *455:4 *455:25 27.3714 
4 *455:25 *1461:A 15.6812 
5 *455:25 *1471:S 19.4436 
*END

*D_NET *456 0.00120357
*CONN
*I *1466:C I *D sky130_fd_sc_hd__xnor3_1
*I *1463:B I *D sky130_fd_sc_hd__xnor2_1
*I *1462:Y O *D sky130_fd_sc_hd__nor2_1
*CAP
1 *1466:C 9.28452e-05
2 *1463:B 0.000267707
3 *1462:Y 0.000194673
4 *456:8 0.000555224
5 *1463:B *1477:A_N 3.67257e-05
6 *1463:B *1492:D 9.25014e-06
7 *1463:B *674:12 0
8 *1466:C *510:12 3.34366e-05
9 *1466:C *674:12 0
10 *456:8 *1477:A_N 9.33978e-07
11 *456:8 *1532:B 5.39629e-06
12 *1462:B *456:8 3.69047e-06
13 *1466:A *456:8 0
14 *1507:CLK *1463:B 0
15 *2:372 *1463:B 0
16 *76:8 *456:8 3.69047e-06
17 *445:26 *1463:B 0
18 *445:26 *1466:C 0
19 *445:36 *1463:B 0
*RES
1 *1462:Y *456:8 18.5277 
2 *456:8 *1463:B 19.9139 
3 *456:8 *1466:C 16.498 
*END

*D_NET *457 0.00455163
*CONN
*I *1465:B I *D sky130_fd_sc_hd__xnor2_1
*I *1479:A I *D sky130_fd_sc_hd__nor2_1
*I *1464:Y O *D sky130_fd_sc_hd__a21oi_1
*CAP
1 *1465:B 0.000325351
2 *1479:A 0.000681369
3 *1464:Y 9.18183e-05
4 *457:8 0.00109854
5 *1465:B *1493:D 0.000111046
6 *1465:B *1529:B 5.98882e-05
7 *1465:B *510:12 0.000207693
8 *1465:B *674:12 0
9 *1479:A *1474:B 0.000200556
10 *1479:A *1478:C 0
11 *1479:A *1489:D 0.000491788
12 *1479:A *1504:D 0
13 *1479:A *1508:D 2.90655e-05
14 *1479:A *461:12 0
15 *1479:A *469:14 6.20656e-05
16 *457:8 *1494:D 0
17 *457:8 *510:12 0.000282368
18 *457:8 *527:14 8.49318e-05
19 *457:8 *674:12 0
20 *1465:A *1465:B 0.00060021
21 *1474:A *1479:A 5.39629e-06
22 *1489:CLK *1479:A 5.41609e-05
23 *50:60 *1479:A 0
24 *50:66 *1479:A 0
25 *51:24 *1465:B 0.000142875
26 *450:16 *1479:A 0
27 *450:18 *1465:B 2.25103e-05
*RES
1 *1464:Y *457:8 18.602 
2 *457:8 *1479:A 44.3843 
3 *457:8 *1465:B 29.6169 
*END

*D_NET *458 0.00217482
*CONN
*I *1477:A_N I *D sky130_fd_sc_hd__nand2b_1
*I *1466:X O *D sky130_fd_sc_hd__xnor3_1
*CAP
1 *1477:A_N 0.000952569
2 *1466:X 0.000952569
3 *1477:A_N *1483:D 5.65013e-05
4 *1477:A_N *1492:D 0
5 *1477:A_N *1532:B 3.18676e-05
6 *1456:A *1477:A_N 0
7 *1463:A *1477:A_N 2.89016e-05
8 *1463:B *1477:A_N 3.67257e-05
9 *1502:CLK *1477:A_N 3.55552e-05
10 *444:8 *1477:A_N 0
11 *448:16 *1477:A_N 7.91941e-05
12 *456:8 *1477:A_N 9.33978e-07
*RES
1 *1466:X *1477:A_N 44.6397 
*END

*D_NET *459 0.00242383
*CONN
*I *1477:B I *D sky130_fd_sc_hd__nand2b_1
*I *1469:X O *D sky130_fd_sc_hd__xnor3_1
*CAP
1 *1477:B 0.000592245
2 *1469:X 0.000592245
3 *1477:B *1469:B 2.13202e-05
4 *1477:B *1469:C 5.33433e-05
5 *1477:B *1478:D 1.19309e-05
6 *1477:B *1488:D 0
7 *1477:B *467:10 0.00018372
8 *1477:B *470:12 0
9 *1470:A *1477:B 0.000228443
10 *1471:A0 *1477:B 0
11 *1471:S *1477:B 8.48609e-05
12 *1507:RESET_B *1477:B 0
13 *448:16 *1477:B 7.98603e-05
14 *451:8 *1477:B 7.39741e-05
15 *454:12 *1477:B 5.71472e-05
16 *454:26 *1477:B 0.000444739
*RES
1 *1469:X *1477:B 49.1905 
*END

*D_NET *460 0.000299781
*CONN
*I *1478:A I *D sky130_fd_sc_hd__nor4_1
*I *1472:X O *D sky130_fd_sc_hd__xor2_1
*CAP
1 *1478:A 8.36442e-05
2 *1472:X 8.36442e-05
3 *1478:A *1478:D 0.000100625
4 *1478:A *470:12 3.18676e-05
5 *447:12 *1478:A 0
*RES
1 *1472:X *1478:A 21.6198 
*END

*D_NET *461 0.00217842
*CONN
*I *1479:B I *D sky130_fd_sc_hd__nor2_1
*I *1474:B I *D sky130_fd_sc_hd__xor2_1
*I *1473:X O *D sky130_fd_sc_hd__and3_1
*CAP
1 *1479:B 0
2 *1474:B 0.000487071
3 *1473:X 0.000100111
4 *461:12 0.000587182
5 *1474:B *1475:A 0.000102207
6 *1474:B *1489:D 6.55827e-05
7 *1474:B *1504:D 0.000190838
8 *1474:B *469:14 6.13514e-05
9 *1464:A2 *1474:B 0
10 *1473:C *1474:B 0
11 *1479:A *1474:B 0.000200556
12 *1479:A *461:12 0
13 *77:8 *1474:B 0.000226066
14 *445:10 *461:12 0.000156191
15 *445:20 *1474:B 1.25805e-06
*RES
1 *1473:X *461:12 21.7406 
2 *461:12 *1474:B 28.1615 
3 *461:12 *1479:B 9.3 
*END

*D_NET *462 0.00078181
*CONN
*I *1478:B I *D sky130_fd_sc_hd__nor4_1
*I *1475:X O *D sky130_fd_sc_hd__xor2_1
*CAP
1 *1478:B 0.000218447
2 *1475:X 0.000218447
3 *1478:B *1478:C 0.000327311
4 *1478:B *1478:D 1.76039e-05
5 *1473:A *1478:B 0
6 *1473:C *1478:B 0
7 *447:12 *1478:B 0
*RES
1 *1475:X *1478:B 35.1248 
*END

*D_NET *463 0.00367709
*CONN
*I *1478:C I *D sky130_fd_sc_hd__nor4_1
*I *1476:X O *D sky130_fd_sc_hd__xor2_1
*CAP
1 *1478:C 0.000963243
2 *1476:X 0.000325871
3 *463:8 0.00128911
4 *1478:C *1472:A 0
5 *1478:C *1475:A 0
6 *1478:C *1478:D 1.69115e-05
7 *1478:C *1482:D 0
8 *1478:C *1504:D 0
9 *463:8 *1476:A 8.68489e-05
10 *463:8 *1503:D 6.78055e-06
11 *1478:B *1478:C 0.000327311
12 *1479:A *1478:C 0
13 *1498:D *463:8 0.000369525
14 *1508:RESET_B *463:8 1.63902e-05
15 *50:52 *1478:C 0
16 *50:54 *1478:C 0
17 *50:60 *1478:C 0
18 *50:66 *1478:C 0
19 *445:10 *1478:C 0.000275094
*RES
1 *1476:X *463:8 26.4981 
2 *463:8 *1478:C 40.4833 
*END

*D_NET *464 0.00139982
*CONN
*I *1478:D I *D sky130_fd_sc_hd__nor4_1
*I *1477:Y O *D sky130_fd_sc_hd__nand2b_1
*CAP
1 *1478:D 0.000575723
2 *1477:Y 0.000575723
3 *1478:D *1466:B 7.40153e-05
4 *1478:D *1472:A 0
5 *1477:B *1478:D 1.19309e-05
6 *1478:A *1478:D 0.000100625
7 *1478:B *1478:D 1.76039e-05
8 *1478:C *1478:D 1.69115e-05
9 *447:12 *1478:D 2.72859e-05
*RES
1 *1477:Y *1478:D 45.1001 
*END

*D_NET *465 0.0024684
*CONN
*I *1469:C I *D sky130_fd_sc_hd__xnor3_1
*I *1486:D I *D sky130_fd_sc_hd__dfrtp_4
*I *1468:B I *D sky130_fd_sc_hd__xnor2_1
*I *1467:Y O *D sky130_fd_sc_hd__xnor2_1
*CAP
1 *1469:C 0.000284179
2 *1486:D 0
3 *1468:B 0.0001479
4 *1467:Y 7.23935e-05
5 *465:19 0.000331818
6 *465:6 0.000267933
7 *1457:A_N *465:6 2.51343e-06
8 *1468:A *1468:B 0
9 *1477:B *1469:C 5.33433e-05
10 *1487:CLK *1468:B 7.38652e-05
11 *1487:CLK *1469:C 2.80968e-06
12 *1487:CLK *465:6 2.89016e-05
13 *1487:CLK *465:19 3.69581e-05
14 *50:89 *1469:C 0
15 *50:91 *1469:C 0
16 *69:115 *1469:C 0.000116026
17 *69:132 *1469:C 4.36551e-06
18 *75:40 *1468:B 1.97381e-05
19 *75:40 *465:6 5.33433e-05
20 *102:18 *1469:C 1.36761e-06
21 *102:18 *465:6 2.87944e-05
22 *102:18 *465:19 6.63792e-06
23 *102:31 *1468:B 0
24 *102:46 *1468:B 4.1331e-06
25 *444:20 *1468:B 0.000103981
26 *444:20 *1469:C 0.000718353
27 *444:20 *465:6 1.00073e-05
28 *454:26 *1469:C 9.90431e-05
*RES
1 *1467:Y *465:6 11.7505 
2 *465:6 *1468:B 23.102 
3 *465:6 *465:19 1.23144 
4 *465:19 *1486:D 9.3 
5 *465:19 *1469:C 32.2419 
*END

*D_NET *466 0.00253232
*CONN
*I *1469:B I *D sky130_fd_sc_hd__xnor3_1
*I *1487:D I *D sky130_fd_sc_hd__dfrtp_1
*I *1461:Y O *D sky130_fd_sc_hd__clkinv_1
*CAP
1 *1469:B 7.74784e-05
2 *1487:D 0.000456261
3 *1461:Y 0.000187622
4 *466:8 0.000721362
5 *1469:B *1469:A 0.00012813
6 *1469:B *470:12 0.000230165
7 *1487:D *1469:A 0.000167182
8 *1461:A *466:8 3.5566e-05
9 *1468:A *1487:D 2.89016e-05
10 *1477:B *1469:B 2.13202e-05
11 *1487:RESET_B *1487:D 4.96254e-05
12 *50:91 *1469:B 4.97121e-06
13 *50:91 *1487:D 6.90018e-05
14 *50:93 *1487:D 5.8955e-05
15 *50:95 *1487:D 0.000111382
16 *50:97 *1487:D 4.89268e-05
17 *50:99 *1487:D 1.97381e-05
18 *75:6 *466:8 7.03458e-05
19 *442:12 *1487:D 0
20 *443:14 *1487:D 0
21 *454:12 *466:8 0
22 *454:26 *1469:B 2.13202e-05
23 *454:26 *466:8 0
24 *455:25 *1487:D 2.4065e-05
*RES
1 *1461:Y *466:8 19.0971 
2 *466:8 *1487:D 30.607 
3 *466:8 *1469:B 18.4782 
*END

*D_NET *467 0.00179509
*CONN
*I *1488:D I *D sky130_fd_sc_hd__dfrtp_1
*I *1471:A1 I *D sky130_fd_sc_hd__mux2_1
*I *1470:Y O *D sky130_fd_sc_hd__xnor2_1
*CAP
1 *1488:D 0.000370836
2 *1471:A1 0
3 *1470:Y 0.000215633
4 *467:10 0.000586469
5 *1488:D *1502:D 0
6 *1488:D *470:12 0
7 *467:10 *470:12 0
8 *1471:A0 *1488:D 0
9 *1471:A0 *467:10 0
10 *1471:S *467:10 7.40249e-05
11 *1477:B *1488:D 0
12 *1477:B *467:10 0.00018372
13 *444:8 *1488:D 0.000295651
14 *454:12 *467:10 6.87574e-05
*RES
1 *1470:Y *467:10 21.0773 
2 *467:10 *1471:A1 13.8 
3 *467:10 *1488:D 24.4931 
*END

*D_NET *468 0.00135955
*CONN
*I *1489:D I *D sky130_fd_sc_hd__dfrtp_1
*I *1479:Y O *D sky130_fd_sc_hd__nor2_1
*CAP
1 *1489:D 0.00030811
2 *1479:Y 0.00030811
3 *1489:D *1485:D 0.000105696
4 *1489:D *1504:D 8.02593e-05
5 *1474:B *1489:D 6.55827e-05
6 *1479:A *1489:D 0.000491788
7 *77:49 *1489:D 0
*RES
1 *1479:Y *1489:D 39.8773 
*END

*D_NET *469 0.00224752
*CONN
*I *1485:D I *D sky130_fd_sc_hd__dfrtp_1
*I *1475:B I *D sky130_fd_sc_hd__xor2_1
*I *1474:X O *D sky130_fd_sc_hd__xor2_1
*CAP
1 *1485:D 0.000281232
2 *1475:B 0.000494836
3 *1474:X 0.000175875
4 *469:14 0.000951943
5 *1475:B *1482:D 0
6 *1485:D *1484:D 0
7 *1485:D *1508:D 0
8 *469:14 *1504:D 3.18676e-05
9 *1473:A *1475:B 0
10 *1474:B *469:14 6.13514e-05
11 *1479:A *469:14 6.20656e-05
12 *1489:D *1485:D 0.000105696
13 *1509:RESET_B *1475:B 4.96155e-05
14 *50:54 *1485:D 0
15 *50:60 *1485:D 0
16 *50:66 *1475:B 0
17 *50:66 *1485:D 4.1331e-06
18 *50:68 *1475:B 0
19 *77:22 *1475:B 0
20 *77:40 *1475:B 0
21 *77:49 *1475:B 0
22 *77:49 *1485:D 0
23 *77:49 *469:14 0
24 *77:60 *1485:D 0
25 *444:575 *1475:B 0
26 *447:12 *1475:B 0
27 *450:16 *1485:D 2.89016e-05
28 *454:39 *1475:B 0
*RES
1 *1474:X *469:14 19.5302 
2 *469:14 *1475:B 26.0649 
3 *469:14 *1485:D 21.5599 
*END

*D_NET *470 0.0035422
*CONN
*I *1480:D I *D sky130_fd_sc_hd__dfstp_2
*I *1478:Y O *D sky130_fd_sc_hd__nor4_1
*CAP
1 *1480:D 0.000172817
2 *1478:Y 0.00069288
3 *470:12 0.000865697
4 *470:12 *1466:B 0
5 *470:12 *1472:A 0.000172249
6 *470:12 *1472:B 6.05161e-06
7 *470:12 *472:8 0.00106615
8 *1469:B *470:12 0.000230165
9 *1471:S *470:12 0
10 *1477:B *470:12 0
11 *1478:A *470:12 3.18676e-05
12 *1488:D *470:12 0
13 *50:87 *470:12 2.49484e-05
14 *50:89 *470:12 0.000208529
15 *50:91 *470:12 3.17163e-05
16 *75:6 *1480:D 3.91226e-05
17 *447:12 *470:12 0
18 *454:26 *1480:D 0
19 *467:10 *470:12 0
*RES
1 *1478:Y *470:12 48.1516 
2 *470:12 *1480:D 14.0277 
*END

*D_NET *471 0.00211444
*CONN
*I *1481:D I *D sky130_fd_sc_hd__dfrtp_1
*I *1468:Y O *D sky130_fd_sc_hd__xnor2_1
*CAP
1 *1481:D 0
2 *1468:Y 0.000740406
3 *471:18 0.000740406
4 *471:18 *1490:D 1.92905e-05
5 *471:18 *1505:D 9.80173e-05
6 *471:18 *1697:S 1.72894e-05
7 *471:18 *674:12 0
8 *1458:A_N *471:18 0.000158826
9 *1460:B *471:18 0
10 *1468:A *471:18 5.23057e-05
11 *1487:CLK *471:18 3.18676e-05
12 *1495:CLK *471:18 0
13 *1495:D *471:18 5.52238e-05
14 *1495:RESET_B *471:18 0
15 *69:115 *471:18 3.07455e-05
16 *442:33 *471:18 8.6326e-05
17 *443:20 *471:18 8.37335e-05
*RES
1 *1468:Y *471:18 41.1466 
2 *471:18 *1481:D 9.3 
*END

*D_NET *472 0.0035006
*CONN
*I *1482:D I *D sky130_fd_sc_hd__dfrtp_1
*I *1472:B I *D sky130_fd_sc_hd__xor2_1
*I *1471:X O *D sky130_fd_sc_hd__mux2_1
*CAP
1 *1482:D 0.000237977
2 *1472:B 3.38508e-05
3 *1471:X 0.000220986
4 *472:8 0.000492814
5 *1482:D *1472:A 1.76135e-05
6 *472:8 *1472:A 2.58997e-05
7 *1475:B *1482:D 0
8 *1478:C *1482:D 0
9 *50:68 *1482:D 3.17067e-05
10 *50:70 *1482:D 7.07676e-05
11 *50:72 *1482:D 2.58997e-05
12 *50:72 *472:8 0.000123668
13 *50:81 *472:8 0.000403707
14 *50:83 *472:8 0.000132297
15 *50:85 *472:8 0.000276816
16 *50:87 *472:8 0.000108118
17 *69:132 *472:8 0.000110671
18 *447:12 *1472:B 0
19 *447:12 *1482:D 0.0001156
20 *470:12 *1472:B 6.05161e-06
21 *470:12 *472:8 0.00106615
*RES
1 *1471:X *472:8 32.909 
2 *472:8 *1472:B 14.5426 
3 *472:8 *1482:D 21.9189 
*END

*D_NET *473 0.000292652
*CONN
*I *1483:D I *D sky130_fd_sc_hd__dfrtp_1
*I *1463:Y O *D sky130_fd_sc_hd__xnor2_1
*CAP
1 *1483:D 0.000118075
2 *1463:Y 0.000118075
3 *1477:A_N *1483:D 5.65013e-05
4 *1507:CLK *1483:D 0
*RES
1 *1463:Y *1483:D 21.8178 
*END

*D_NET *474 0.00131512
*CONN
*I *1476:B I *D sky130_fd_sc_hd__xor2_1
*I *1484:D I *D sky130_fd_sc_hd__dfrtp_1
*I *1465:Y O *D sky130_fd_sc_hd__xnor2_1
*CAP
1 *1476:B 0
2 *1484:D 0.00030286
3 *1465:Y 0.000117237
4 *474:10 0.000420097
5 *1465:A *1484:D 0.000126218
6 *1465:A *474:10 8.13599e-05
7 *1484:CLK *1484:D 9.16173e-05
8 *1485:CLK *1484:D 0
9 *1485:D *1484:D 0
10 *1498:D *1484:D 3.97657e-05
11 *1503:CLK *474:10 0
12 *1508:RESET_B *474:10 3.67257e-05
13 *1770:CLK *1484:D 9.92409e-05
14 *77:71 *1484:D 0
15 *77:89 *1484:D 0
16 *77:89 *474:10 0
17 *450:16 *1484:D 0
*RES
1 *1465:Y *474:10 17.8099 
2 *474:10 *1484:D 24.1961 
3 *474:10 *1476:B 13.8 
*END

*D_NET *475 0.000905537
*CONN
*I *1469:A I *D sky130_fd_sc_hd__xnor3_1
*I *1500:Q O *D sky130_fd_sc_hd__dfrtp_1
*CAP
1 *1469:A 0.000173357
2 *1500:Q 0.000173357
3 *1459:B *1469:A 5.71472e-05
4 *1469:B *1469:A 0.00012813
5 *1471:S *1469:A 5.01876e-05
6 *1487:D *1469:A 0.000167182
7 *75:6 *1469:A 0
8 *455:25 *1469:A 0.000156176
*RES
1 *1500:Q *1469:A 37.3525 
*END

*D_NET *476 0.000540649
*CONN
*I *1472:A I *D sky130_fd_sc_hd__xor2_1
*I *1501:Q O *D sky130_fd_sc_hd__dfrtp_1
*CAP
1 *1472:A 0.000162444
2 *1501:Q 0.000162444
3 *1478:C *1472:A 0
4 *1478:D *1472:A 0
5 *1482:D *1472:A 1.76135e-05
6 *470:12 *1472:A 0.000172249
7 *472:8 *1472:A 2.58997e-05
*RES
1 *1501:Q *1472:A 33.3179 
*END

*D_NET *477 0.00136722
*CONN
*I *1466:B I *D sky130_fd_sc_hd__xnor3_1
*I *1502:Q O *D sky130_fd_sc_hd__dfrtp_1
*CAP
1 *1466:B 0.000404445
2 *1502:Q 0.000404445
3 *1466:A *1466:B 5.52302e-05
4 *1478:D *1466:B 7.40153e-05
5 *76:8 *1466:B 0.000429085
6 *470:12 *1466:B 0
*RES
1 *1502:Q *1466:B 41.4367 
*END

*D_NET *478 0.00200848
*CONN
*I *1476:A I *D sky130_fd_sc_hd__xor2_1
*I *1503:Q O *D sky130_fd_sc_hd__dfrtp_1
*CAP
1 *1476:A 0.00051655
2 *1503:Q 0.00051655
3 *1476:A *1503:D 0.000138681
4 *1484:RESET_B *1476:A 4.46186e-06
5 *1498:D *1476:A 0
6 *1503:CLK *1476:A 0
7 *1503:RESET_B *1476:A 0.000229889
8 *1508:RESET_B *1476:A 0.000515497
9 *463:8 *1476:A 8.68489e-05
*RES
1 *1503:Q *1476:A 46.3377 
*END

*D_NET *479 0.000711865
*CONN
*I *1475:A I *D sky130_fd_sc_hd__xor2_1
*I *1504:Q O *D sky130_fd_sc_hd__dfrtp_1
*CAP
1 *1475:A 0.000294333
2 *1504:Q 0.000294333
3 *1475:A *1504:D 0
4 *1474:B *1475:A 0.000102207
5 *1478:C *1475:A 0
6 *50:66 *1475:A 0
7 *50:68 *1475:A 0
8 *445:20 *1475:A 2.09915e-05
*RES
1 *1504:Q *1475:A 35.6941 
*END

*D_NET *480 0.00158607
*CONN
*I *1490:D I *D sky130_fd_sc_hd__dfrtp_1
*I *1495:Q O *D sky130_fd_sc_hd__dfrtp_1
*CAP
1 *1490:D 0.000334722
2 *1495:Q 0.000334722
3 *1490:D *1505:D 0
4 *1490:D *1525:A 0.000136346
5 *1490:D *674:12 0.000521618
6 *2:384 *1490:D 8.99991e-05
7 *2:392 *1490:D 0.000126629
8 *69:12 *1490:D 0
9 *69:14 *1490:D 0
10 *443:20 *1490:D 2.27416e-05
11 *471:18 *1490:D 1.92905e-05
*RES
1 *1495:Q *1490:D 42.0803 
*END

*D_NET *481 0.000272056
*CONN
*I *1491:D I *D sky130_fd_sc_hd__dfrtp_1
*I *1496:Q O *D sky130_fd_sc_hd__dfrtp_1
*CAP
1 *1491:D 8.41077e-05
2 *1496:Q 8.41077e-05
3 *1491:D *1532:A 4.58096e-05
4 *1536:CLK *1491:D 5.80311e-05
5 *2:355 *1491:D 0
*RES
1 *1496:Q *1491:D 30.7188 
*END

*D_NET *482 0.00147585
*CONN
*I *1492:D I *D sky130_fd_sc_hd__dfrtp_1
*I *1497:Q O *D sky130_fd_sc_hd__dfrtp_1
*CAP
1 *1492:D 0.000396871
2 *1497:Q 0.000396871
3 *1492:D *1517:B 4.45768e-06
4 *1492:D *1522:B 0.000358915
5 *1492:D *1537:D 4.81157e-05
6 *1463:B *1492:D 9.25014e-06
7 *1477:A_N *1492:D 0
8 *1507:CLK *1492:D 0.000134719
9 *2:372 *1492:D 0.000126654
10 *445:36 *1492:D 0
*RES
1 *1497:Q *1492:D 42.5258 
*END

*D_NET *483 0.00136945
*CONN
*I *1493:D I *D sky130_fd_sc_hd__dfrtp_1
*I *1498:Q O *D sky130_fd_sc_hd__dfrtp_1
*CAP
1 *1493:D 0.000507982
2 *1498:Q 0.000507982
3 *1493:D *1529:B 9.90431e-05
4 *1493:D *1770:D 0
5 *1493:D *674:12 0
6 *1465:B *1493:D 0.000111046
7 *1498:RESET_B *1493:D 0
8 *1679:RESET_B *1493:D 0
9 *1770:CLK *1493:D 0
10 *51:24 *1493:D 0.0001434
*RES
1 *1498:Q *1493:D 42.3773 
*END

*D_NET *484 0.000719697
*CONN
*I *1494:D I *D sky130_fd_sc_hd__dfrtp_1
*I *1499:Q O *D sky130_fd_sc_hd__dfrtp_1
*CAP
1 *1494:D 0.000359848
2 *1499:Q 0.000359848
3 *1494:D *1529:B 0
4 *1494:D *527:14 0
5 *1494:D *674:12 0
6 *1499:D *1494:D 0
7 *1538:RESET_B *1494:D 0
8 *1679:RESET_B *1494:D 0
9 *457:8 *1494:D 0
*RES
1 *1499:Q *1494:D 36.3129 
*END

*D_NET *485 0.000421109
*CONN
*I *1500:D I *D sky130_fd_sc_hd__dfrtp_1
*I *1505:Q O *D sky130_fd_sc_hd__dfrtp_1
*CAP
1 *1500:D 7.55167e-05
2 *1505:Q 7.55167e-05
3 *1459:B *1500:D 5.06983e-05
4 *1505:RESET_B *1500:D 7.48091e-05
5 *75:34 *1500:D 3.88799e-05
6 *444:20 *1500:D 0.000105689
*RES
1 *1505:Q *1500:D 31.3376 
*END

*D_NET *486 0.000630171
*CONN
*I *1501:D I *D sky130_fd_sc_hd__dfrtp_1
*I *1506:Q O *D sky130_fd_sc_hd__dfrtp_1
*CAP
1 *1501:D 0.000235091
2 *1506:Q 0.000235091
3 *1506:RESET_B *1501:D 2.52688e-05
4 *50:72 *1501:D 0
5 *444:575 *1501:D 0.000134719
6 *447:12 *1501:D 0
*RES
1 *1506:Q *1501:D 34.605 
*END

*D_NET *487 0.00108832
*CONN
*I *1502:D I *D sky130_fd_sc_hd__dfrtp_1
*I *1507:Q O *D sky130_fd_sc_hd__dfrtp_1
*CAP
1 *1502:D 0.000277598
2 *1507:Q 0.000277598
3 *1488:D *1502:D 0
4 *1507:RESET_B *1502:D 9.3559e-05
5 *50:83 *1502:D 0
6 *50:85 *1502:D 0
7 *444:20 *1502:D 0.000113067
8 *444:562 *1502:D 0.000169488
9 *448:16 *1502:D 0.000157009
*RES
1 *1507:Q *1502:D 39.209 
*END

*D_NET *488 0.000865325
*CONN
*I *1503:D I *D sky130_fd_sc_hd__dfrtp_1
*I *1508:Q O *D sky130_fd_sc_hd__dfrtp_1
*CAP
1 *1503:D 0.000310687
2 *1508:Q 0.000310687
3 *1476:A *1503:D 0.000138681
4 *1503:RESET_B *1503:D 9.84891e-05
5 *463:8 *1503:D 6.78055e-06
*RES
1 *1508:Q *1503:D 37.4763 
*END

*D_NET *489 0.00115425
*CONN
*I *1504:D I *D sky130_fd_sc_hd__dfrtp_1
*I *1509:Q O *D sky130_fd_sc_hd__dfrtp_1
*CAP
1 *1504:D 0.000265621
2 *1509:Q 0.000265621
3 *1474:B *1504:D 0.000190838
4 *1475:A *1504:D 0
5 *1478:C *1504:D 0
6 *1479:A *1504:D 0
7 *1489:D *1504:D 8.02593e-05
8 *50:66 *1504:D 0.000320038
9 *469:14 *1504:D 3.18676e-05
*RES
1 *1509:Q *1504:D 37.9713 
*END

*D_NET *490 0.0136771
*CONN
*I *1523:A I *D sky130_fd_sc_hd__xnor2_1
*I *1513:C I *D sky130_fd_sc_hd__and4b_1
*I *1512:C I *D sky130_fd_sc_hd__nand3b_1
*I *1196:A I *D sky130_fd_sc_hd__nor2_1
*I *1237:D I *D sky130_fd_sc_hd__nand4b_1
*I *1185:A I *D sky130_fd_sc_hd__nand2_1
*I *1198:A I *D sky130_fd_sc_hd__or3_1
*I *1236:B I *D sky130_fd_sc_hd__nand2b_1
*I *1292:A I *D sky130_fd_sc_hd__nor3_1
*I *1175:A_N I *D sky130_fd_sc_hd__nand3b_1
*I *1540:Q O *D sky130_fd_sc_hd__dfrtp_1
*CAP
1 *1523:A 0
2 *1513:C 1.95111e-05
3 *1512:C 1.67212e-05
4 *1196:A 8.31157e-05
5 *1237:D 0
6 *1185:A 0.000116196
7 *1198:A 0
8 *1236:B 0.000127784
9 *1292:A 0
10 *1175:A_N 0.000330956
11 *1540:Q 0.000129354
12 *490:87 0.000124852
13 *490:46 0.000339181
14 *490:44 0.000217684
15 *490:40 0.00109982
16 *490:32 0.0010525
17 *490:30 0.00130171
18 *490:22 0.00125923
19 *490:20 0.000191503
20 *490:14 0.000234413
21 *1175:A_N *1236:A_N 4.38128e-05
22 *1175:A_N *1283:C_N 0.000185643
23 *1175:A_N *1292:B 5.52302e-05
24 *1185:A *1185:B 7.95386e-05
25 *1185:A *491:78 3.04495e-05
26 *1185:A *492:44 2.89016e-05
27 *1185:A *493:63 8.6229e-06
28 *1185:A *493:74 5.52238e-05
29 *1196:A *491:47 0.000267211
30 *1196:A *492:32 0.000313241
31 *1196:A *493:40 4.43256e-05
32 *1236:B *1236:A_N 0.000336318
33 *1513:C *493:38 0
34 *490:14 *1513:D 9.69119e-06
35 *490:14 *1514:B 9.90367e-05
36 *490:14 *491:12 6.84519e-05
37 *490:14 *491:18 0.000154974
38 *490:14 *491:28 9.90367e-05
39 *490:14 *513:8 8.49318e-05
40 *490:14 *513:23 5.71472e-05
41 *490:20 *1513:D 0.000107494
42 *490:30 *492:32 4.87953e-05
43 *490:30 *493:38 0
44 *490:32 *491:47 9.46275e-05
45 *490:40 *491:28 2.06178e-05
46 *490:40 *491:47 9.54798e-06
47 *490:44 *1236:A_N 8.11028e-06
48 *490:44 *491:78 8.79824e-05
49 *490:46 *1236:A_N 5.52238e-05
50 *490:87 *491:78 5.41797e-06
51 *1134:A *1512:C 1.04232e-05
52 *1134:A *490:22 2.28499e-05
53 *1134:A *490:30 4.62898e-05
54 *1134:SLEEP *490:30 0.00018372
55 *1175:C *1175:A_N 8.957e-05
56 *1186:C *1185:A 1.88266e-05
57 *1217:B *1236:B 6.26774e-06
58 *1238:S *490:30 0
59 *1256:A *1175:A_N 5.52302e-05
60 *1256:B *1175:A_N 2.89114e-05
61 *1283:A *1175:A_N 2.83403e-05
62 *1293:A0 *1236:B 3.69047e-06
63 *1293:S *1175:A_N 6.72205e-05
64 *1293:S *1236:B 0.000170379
65 *1293:S *490:46 4.38128e-05
66 *1301:B *1175:A_N 0.000137983
67 *1310:A *490:44 5.28368e-06
68 *1352:CLK *490:30 0
69 *1424:CLK *1175:A_N 0
70 *1424:D *490:44 0.000104492
71 *1511:B *490:20 0
72 *1512:A_N *490:30 8.46829e-05
73 *1513:A_N *490:22 6.74408e-05
74 *1513:B *1513:C 3.69047e-06
75 *1513:B *490:22 4.8843e-05
76 *1652:CLK *490:30 0.000195386
77 *1652:RESET_B *490:30 0.000175601
78 *82:18 *1513:C 4.27935e-05
79 *82:18 *490:22 0.000298875
80 *82:18 *490:30 0.000268409
81 *104:133 *1175:A_N 0.000105682
82 *111:8 *490:30 0.000227532
83 *113:54 *490:22 5.33005e-05
84 *128:14 *490:30 0
85 *128:16 *490:30 0
86 *128:42 *490:40 0.000379299
87 *128:46 *490:40 4.74316e-05
88 *128:61 *1185:A 4.79104e-05
89 *128:61 *490:44 3.43988e-06
90 *128:61 *490:87 3.43988e-06
91 *128:67 *1175:A_N 2.05612e-05
92 *128:67 *490:44 1.08359e-05
93 *257:30 *1185:A 1.85762e-05
94 *257:30 *490:40 0.0002438
95 *257:30 *490:87 4.6025e-06
96 *259:16 *1175:A_N 0.000104728
97 *261:14 *1175:A_N 4.92638e-05
98 *271:28 *1196:A 7.90803e-05
99 *271:28 *490:32 0.000151855
100 *271:28 *490:40 2.06178e-05
101 *292:10 *1236:B 9.68964e-05
102 *302:8 *1236:B 1.38106e-05
103 *303:8 *490:30 7.10538e-05
104 *311:10 *1175:A_N 5.52302e-05
105 *426:12 *490:30 2.79421e-05
106 *442:74 *490:40 0.000182983
107 *442:84 *490:40 0.000344086
*RES
1 *1540:Q *490:14 24.3396 
2 *490:14 *490:20 12.5396 
3 *490:20 *490:22 4.15844 
4 *490:22 *490:30 42.2972 
5 *490:30 *490:32 2.69803 
6 *490:32 *490:40 10.5569 
7 *490:40 *490:44 7.82922 
8 *490:44 *490:46 0.742578 
9 *490:46 *1175:A_N 31.3446 
10 *490:46 *1292:A 9.3 
11 *490:44 *1236:B 24.4696 
12 *490:40 *490:87 0.383665 
13 *490:87 *1198:A 13.8 
14 *490:87 *1185:A 18.503 
15 *490:32 *1237:D 13.8 
16 *490:30 *1196:A 19.3941 
17 *490:22 *1512:C 9.89406 
18 *490:20 *1513:C 10.0426 
19 *490:14 *1523:A 9.3 
*END

*D_NET *491 0.0150299
*CONN
*I *1514:A I *D sky130_fd_sc_hd__xor2_1
*I *1513:D I *D sky130_fd_sc_hd__and4b_1
*I *1196:B I *D sky130_fd_sc_hd__nor2_1
*I *1198:B I *D sky130_fd_sc_hd__or3_1
*I *1185:B I *D sky130_fd_sc_hd__nand2_1
*I *1236:A_N I *D sky130_fd_sc_hd__nand2b_1
*I *1292:B I *D sky130_fd_sc_hd__nor3_1
*I *1175:B I *D sky130_fd_sc_hd__nand3b_1
*I *1237:A_N I *D sky130_fd_sc_hd__nand4b_1
*I *1541:Q O *D sky130_fd_sc_hd__dfrtp_1
*CAP
1 *1514:A 0
2 *1513:D 9.922e-05
3 *1196:B 0
4 *1198:B 0
5 *1185:B 0.000101585
6 *1236:A_N 0.000170484
7 *1292:B 1.42796e-05
8 *1175:B 0.000197895
9 *1237:A_N 0
10 *1541:Q 0.000224275
11 *491:78 0.000284348
12 *491:74 0.00020117
13 *491:59 0.000243452
14 *491:57 0.000491698
15 *491:47 0.000689544
16 *491:28 0.00105619
17 *491:18 0.00102419
18 *491:12 0.000336462
19 *1175:B *1226:B 3.32631e-05
20 *1175:B *492:44 4.97625e-05
21 *1175:B *492:50 1.93629e-05
22 *1513:D *1514:B 0.000133005
23 *1513:D *502:8 2.16719e-05
24 *491:12 *1524:B 0
25 *491:12 *1540:D 6.8646e-06
26 *491:12 *1541:D 0.000251754
27 *491:12 *513:8 7.80714e-06
28 *491:18 *1514:B 2.87584e-05
29 *491:18 *1520:C 0
30 *491:18 *503:8 0
31 *491:18 *513:23 3.81416e-06
32 *491:28 *1514:B 0
33 *491:28 *1523:B 8.07313e-05
34 *491:28 *1540:D 0
35 *491:47 *492:32 3.9846e-05
36 *491:47 *493:40 0.000318101
37 *491:57 *1246:A 0
38 *491:57 *492:32 0.000856645
39 *491:57 *492:34 9.00795e-06
40 *491:57 *492:36 1.77393e-05
41 *491:57 *492:44 2.72859e-05
42 *491:57 *493:40 0.000330082
43 *491:59 *492:44 3.5566e-05
44 *1136:A0 *491:28 4.884e-05
45 *1175:A_N *1236:A_N 4.38128e-05
46 *1175:A_N *1292:B 5.52302e-05
47 *1175:C *1175:B 1.02504e-05
48 *1176:B *1175:B 8.25843e-06
49 *1185:A *1185:B 7.95386e-05
50 *1185:A *491:78 3.04495e-05
51 *1196:A *491:47 0.000267211
52 *1199:A1 *491:28 0.000101169
53 *1208:A *491:47 0
54 *1214:A0 *491:28 1.58163e-05
55 *1236:B *1236:A_N 0.000336318
56 *1237:C *491:28 9.71197e-05
57 *1247:A *1236:A_N 4.46186e-06
58 *1256:B *1175:B 0.000345257
59 *1310:A *1236:A_N 0
60 *1310:A *491:78 0.000176234
61 *1344:CLK *491:57 0
62 *1352:D *491:28 0.000190948
63 *1376:D *491:28 0.000108652
64 *1424:CLK *1175:B 5.38239e-05
65 *1424:CLK *491:57 6.42095e-05
66 *1424:CLK *491:59 6.71854e-05
67 *1424:D *1236:A_N 0
68 *1511:A_N *491:28 9.90367e-05
69 *1511:B *491:28 6.85554e-05
70 *1540:RESET_B *491:12 5.66157e-05
71 *1540:RESET_B *491:18 0
72 *1540:RESET_B *491:28 0
73 *1541:RESET_B *491:12 0.000105682
74 *2:392 *491:12 0.000137289
75 *82:18 *1513:D 2.3541e-05
76 *82:18 *491:28 0
77 *94:28 *491:28 0.000388336
78 *104:66 *491:28 0.000220337
79 *104:118 *1236:A_N 4.75428e-05
80 *109:115 *491:28 6.28241e-05
81 *110:216 *491:57 0.000227532
82 *128:14 *491:28 0.000501872
83 *128:16 *491:28 0.00173716
84 *128:27 *491:28 8.43535e-06
85 *128:42 *491:47 0
86 *128:67 *1236:A_N 0.000183726
87 *128:67 *1292:B 5.33005e-05
88 *257:30 *491:28 5.32956e-05
89 *257:30 *491:47 0
90 *257:30 *491:57 0.000163757
91 *261:14 *1175:B 0
92 *271:28 *491:28 1.4363e-05
93 *271:28 *491:47 6.8646e-06
94 *292:10 *1236:A_N 6.21521e-06
95 *292:10 *491:57 1.92789e-05
96 *295:17 *491:78 5.1588e-05
97 *296:10 *1236:A_N 9.33978e-07
98 *297:8 *491:57 0
99 *304:29 *1185:B 7.50767e-05
100 *304:29 *491:78 1.01487e-05
101 *314:10 *491:28 0.000230206
102 *445:60 *491:12 0.000244597
103 *490:14 *1513:D 9.69119e-06
104 *490:14 *491:12 6.84519e-05
105 *490:14 *491:18 0.000154974
106 *490:14 *491:28 9.90367e-05
107 *490:20 *1513:D 0.000107494
108 *490:32 *491:47 9.46275e-05
109 *490:40 *491:28 2.06178e-05
110 *490:40 *491:47 9.54798e-06
111 *490:44 *1236:A_N 8.11028e-06
112 *490:44 *491:78 8.79824e-05
113 *490:46 *1236:A_N 5.52238e-05
114 *490:87 *491:78 5.41797e-06
*RES
1 *1541:Q *491:12 29.81 
2 *491:12 *491:18 3.78715 
3 *491:18 *491:28 48.5844 
4 *491:28 *1237:A_N 13.8 
5 *491:28 *491:47 14.5496 
6 *491:47 *491:57 30.2625 
7 *491:57 *491:59 1.8812 
8 *491:59 *1175:B 25.0327 
9 *491:59 *491:74 4.5 
10 *491:74 *491:78 8.88121 
11 *491:78 *1292:B 10.0426 
12 *491:78 *1236:A_N 25.2802 
13 *491:74 *1185:B 17.2406 
14 *491:57 *1198:B 9.3 
15 *491:47 *1196:B 9.3 
16 *491:18 *1513:D 22.5884 
17 *491:12 *1514:A 9.3 
*END

*D_NET *492 0.0147426
*CONN
*I *1510:A I *D sky130_fd_sc_hd__clkinv_1
*I *1520:A I *D sky130_fd_sc_hd__nand3_1
*I *1516:A I *D sky130_fd_sc_hd__nor2_1
*I *1518:A1 I *D sky130_fd_sc_hd__a21oi_1
*I *1207:B I *D sky130_fd_sc_hd__nor2_1
*I *1246:B I *D sky130_fd_sc_hd__nand3_1
*I *1186:B I *D sky130_fd_sc_hd__nand3b_1
*I *1176:A I *D sky130_fd_sc_hd__nor3b_1
*I *1226:B I *D sky130_fd_sc_hd__nand2_1
*I *1197:A_N I *D sky130_fd_sc_hd__nand3b_1
*I *1301:C I *D sky130_fd_sc_hd__nor4b_1
*I *1283:C_N I *D sky130_fd_sc_hd__nor3b_1
*I *1542:Q O *D sky130_fd_sc_hd__dfrtp_1
*CAP
1 *1510:A 5.87324e-05
2 *1520:A 0.000103201
3 *1516:A 0.000102029
4 *1518:A1 0
5 *1207:B 1.0975e-05
6 *1246:B 1.21422e-05
7 *1186:B 1.29477e-05
8 *1176:A 0
9 *1226:B 0.000126388
10 *1197:A_N 2.99504e-05
11 *1301:C 0
12 *1283:C_N 3.6387e-05
13 *1542:Q 0
14 *492:130 0.000355067
15 *492:54 9.7992e-05
16 *492:50 0.000172368
17 *492:48 0.000245648
18 *492:44 0.000279821
19 *492:36 0.000368164
20 *492:34 0.000171149
21 *492:32 0.000562014
22 *492:28 0.00173038
23 *492:18 0.00187715
24 *492:6 0.000535958
25 *492:4 9.18856e-05
26 *1186:B *493:74 5.04841e-06
27 *1207:B *1207:A 5.7661e-06
28 *1226:B *1226:A 6.38902e-05
29 *1226:B *493:74 0
30 *1516:A *1516:B 0.000131439
31 *1516:A *1526:A 0
32 *1516:A *1531:A_N 5.37963e-05
33 *1516:A *1533:A 3.99614e-06
34 *1516:A *1533:B_N 1.04232e-05
35 *1516:A *502:25 5.71472e-05
36 *1516:A *505:8 4.58976e-05
37 *1520:A *508:22 0.000198705
38 *492:18 *1520:C 0.00024425
39 *492:18 *1526:A 2.1527e-05
40 *492:18 *1526:B 0
41 *492:18 *1527:A1 5.33005e-05
42 *492:18 *1527:S 0
43 *492:18 *1542:D 0.000155469
44 *492:18 *493:30 0.000266473
45 *492:18 *493:38 1.92789e-05
46 *492:18 *499:10 0.000179071
47 *492:18 *515:10 3.17148e-05
48 *492:28 *1526:B 5.39166e-06
49 *492:28 *1594:B 0.00016345
50 *492:28 *1634:S 0.000288121
51 *492:28 *1670:D 2.89114e-05
52 *492:28 *493:38 0.000356233
53 *492:28 *626:10 0
54 *492:28 *634:10 5.71472e-05
55 *492:32 *493:40 5.72753e-05
56 *492:44 *1226:A 5.33005e-05
57 *492:44 *493:74 7.89195e-05
58 *492:48 *493:82 3.15873e-05
59 *492:130 *1518:B1 0.000291452
60 *492:130 *1526:A 0
61 *492:130 *493:38 9.25014e-06
62 *492:130 *502:25 2.14757e-05
63 *492:130 *505:8 1.21258e-05
64 *1121:A *492:28 0.000319223
65 *1175:A_N *1283:C_N 0.000185643
66 *1175:B *1226:B 3.32631e-05
67 *1175:B *492:44 4.97625e-05
68 *1175:B *492:50 1.93629e-05
69 *1175:C *1283:C_N 4.13496e-05
70 *1176:B *1226:B 7.37945e-05
71 *1176:B *492:44 6.09963e-05
72 *1180:S *1226:B 1.14192e-05
73 *1180:S *492:48 1.53289e-05
74 *1180:S *492:50 1.89507e-06
75 *1185:A *492:44 2.89016e-05
76 *1196:A *492:32 0.000313241
77 *1217:A_N *492:54 0.00015134
78 *1227:A *1226:B 1.04232e-05
79 *1227:B *1226:B 2.06178e-05
80 *1256:A *1197:A_N 9.41642e-05
81 *1256:B *1226:B 2.87555e-06
82 *1274:A *1186:B 0
83 *1274:A *492:44 5.7661e-06
84 *1283:A *1283:C_N 0.00010096
85 *1424:CLK *1197:A_N 9.41642e-05
86 *1424:CLK *492:50 2.21038e-05
87 *1424:CLK *492:54 0.000197991
88 *1542:RESET_B *1510:A 5.33334e-05
89 *1542:RESET_B *492:6 5.33433e-05
90 *1542:RESET_B *492:18 2.29097e-05
91 *1643:CLK *492:28 0
92 *1644:RESET_B *492:28 0
93 *1644:RESET_B *492:130 0
94 *1670:CLK *492:28 5.52302e-05
95 *81:10 *492:28 0.000361498
96 *81:84 *492:28 0.000397918
97 *82:12 *492:18 2.89114e-05
98 *82:18 *492:18 0
99 *82:48 *492:28 0
100 *82:73 *492:18 4.72818e-05
101 *82:90 *1520:A 0
102 *82:119 *1520:A 0
103 *106:115 *492:28 0
104 *110:216 *492:32 0
105 *110:216 *492:34 0
106 *110:216 *492:36 0
107 *110:216 *492:44 0
108 *110:230 *1226:B 7.65697e-05
109 *113:33 *492:130 0
110 *128:27 *492:32 0
111 *257:30 *492:32 0
112 *261:14 *492:50 0
113 *271:28 *492:28 0.000226028
114 *289:34 *492:48 8.6229e-06
115 *289:34 *492:50 0.000143026
116 *289:34 *492:54 4.49293e-05
117 *290:8 *1226:B 0.00014285
118 *291:6 *492:44 8.46829e-05
119 *291:12 *492:44 5.33005e-05
120 *292:10 *492:36 2.89016e-05
121 *294:12 *492:32 2.89016e-05
122 *426:12 *492:32 1.27295e-05
123 *445:36 *1510:A 0
124 *445:36 *492:6 0
125 *445:36 *492:18 0
126 *490:30 *492:32 4.87953e-05
127 *491:47 *492:32 3.9846e-05
128 *491:57 *492:32 0.000856645
129 *491:57 *492:34 9.00795e-06
130 *491:57 *492:36 1.77393e-05
131 *491:57 *492:44 2.72859e-05
132 *491:59 *492:44 3.5566e-05
*RES
1 *1542:Q *492:4 9.3 
2 *492:4 *492:6 1.31189 
3 *492:6 *492:18 25.2872 
4 *492:18 *492:28 49.822 
5 *492:28 *492:32 24.0298 
6 *492:32 *492:34 1.31189 
7 *492:34 *492:36 3.01982 
8 *492:36 *492:44 8.36638 
9 *492:44 *492:48 5.51486 
10 *492:48 *492:50 2.69803 
11 *492:50 *492:54 8.03962 
12 *492:54 *1283:C_N 11.7505 
13 *492:54 *1301:C 9.3 
14 *492:50 *1197:A_N 15.1119 
15 *492:48 *1226:B 28.4065 
16 *492:44 *1176:A 9.3 
17 *492:36 *1186:B 9.89406 
18 *492:34 *1246:B 9.89406 
19 *492:32 *1207:B 9.89406 
20 *492:18 *492:130 16.104 
21 *492:130 *1518:A1 9.3 
22 *492:130 *1516:A 14.0773 
23 *492:6 *1520:A 21.8396 
24 *492:4 *1510:A 11.2059 
*END

*D_NET *493 0.0157079
*CONN
*I *1517:A I *D sky130_fd_sc_hd__xnor2_1
*I *1522:A I *D sky130_fd_sc_hd__xnor3_1
*I *1520:B I *D sky130_fd_sc_hd__nand3_1
*I *1518:B1 I *D sky130_fd_sc_hd__a21oi_1
*I *1246:A I *D sky130_fd_sc_hd__nand3_1
*I *1176:C_N I *D sky130_fd_sc_hd__nor3b_1
*I *1226:A I *D sky130_fd_sc_hd__nand2_1
*I *1197:C I *D sky130_fd_sc_hd__nand3b_1
*I *1283:B I *D sky130_fd_sc_hd__nor3b_1
*I *1301:A I *D sky130_fd_sc_hd__nor4b_1
*I *1186:A_N I *D sky130_fd_sc_hd__nand3b_1
*I *1207:A I *D sky130_fd_sc_hd__nor2_1
*I *1543:Q O *D sky130_fd_sc_hd__dfrtp_1
*CAP
1 *1517:A 0.000154971
2 *1522:A 0
3 *1520:B 0.000127696
4 *1518:B1 8.09078e-05
5 *1246:A 3.60976e-05
6 *1176:C_N 0
7 *1226:A 5.99809e-05
8 *1197:C 4.19457e-05
9 *1283:B 0.000186855
10 *1301:A 2.25532e-05
11 *1186:A_N 0
12 *1207:A 3.69005e-05
13 *1543:Q 0
14 *493:84 0.00025299
15 *493:82 0.000238266
16 *493:74 0.000385767
17 *493:63 0.000376963
18 *493:55 0.000317447
19 *493:40 0.000544376
20 *493:38 0.00152854
21 *493:30 0.00132555
22 *493:26 0.000559042
23 *493:14 0.000574572
24 *493:4 0.000444338
25 *1517:A *1522:B 0
26 *1518:B1 *502:8 0.000131297
27 *1518:B1 *502:25 0.000193592
28 *1520:B *1527:A1 1.54142e-05
29 *1520:B *1527:S 9.90431e-05
30 *1520:B *520:10 0.000217781
31 *493:14 *1517:B 4.7141e-05
32 *493:14 *1521:B 9.25014e-06
33 *493:14 *1522:B 0.000118114
34 *493:14 *1533:B_N 9.33978e-07
35 *493:14 *506:8 0.000131297
36 *493:26 *1522:B 5.33005e-05
37 *493:26 *1522:C 4.1331e-06
38 *493:26 *1526:A 0.000147947
39 *493:26 *1531:A_N 1.02212e-05
40 *493:26 *1533:B_N 3.21228e-05
41 *493:26 *502:25 0
42 *493:26 *520:10 0
43 *493:30 *1526:A 0
44 *493:30 *1526:B 4.00276e-06
45 *493:30 *1527:A1 9.16173e-05
46 *493:30 *515:10 1.05901e-05
47 *493:30 *520:10 0.0001399
48 *493:38 *1594:B 0.000312215
49 *493:38 *1652:D 1.07719e-05
50 *493:38 *1670:D 5.71472e-05
51 *493:38 *502:8 0.000103974
52 *493:40 *1594:B 3.30309e-05
53 *493:40 *1651:D 1.07719e-05
54 *1120:A *493:38 5.33005e-05
55 *1121:A *493:38 0.00116637
56 *1134:A *493:38 6.9727e-05
57 *1175:C *1283:B 0.000216755
58 *1176:B *1226:A 2.28499e-05
59 *1180:S *493:82 0
60 *1185:A *493:63 8.6229e-06
61 *1185:A *493:74 5.52238e-05
62 *1186:B *493:74 5.04841e-06
63 *1186:C *493:63 9.54798e-06
64 *1196:A *493:40 4.43256e-05
65 *1207:B *1207:A 5.7661e-06
66 *1217:A_N *1301:A 5.58941e-05
67 *1217:A_N *493:84 7.22594e-05
68 *1226:B *1226:A 6.38902e-05
69 *1226:B *493:74 0
70 *1256:A *1283:B 4.01762e-05
71 *1274:A *493:74 0
72 *1274:B *493:82 4.46186e-06
73 *1283:A *1283:B 8.02348e-05
74 *1492:CLK *493:14 4.98506e-05
75 *1497:D *1517:A 0
76 *1497:D *493:14 0
77 *1513:A_N *493:38 9.41778e-05
78 *1513:B *493:38 5.41609e-05
79 *1513:C *493:38 0
80 *1543:CLK *493:26 1.69497e-05
81 *1543:RESET_B *1517:A 0.000239969
82 *1543:RESET_B *493:14 0.000136182
83 *1594:A *493:40 0
84 *1644:RESET_B *1518:B1 0
85 *1651:CLK *493:40 0
86 *1651:RESET_B *493:40 1.52723e-05
87 *1652:CLK *493:38 0
88 *1652:RESET_B *493:38 0.000214125
89 *1670:CLK *493:38 2.44318e-05
90 *81:84 *493:38 0.00021528
91 *82:18 *493:38 0
92 *82:73 *1520:B 2.27189e-05
93 *82:77 *1520:B 8.94573e-05
94 *104:133 *1283:B 1.24368e-05
95 *110:14 *493:40 0
96 *110:216 *1226:A 2.87555e-06
97 *110:216 *493:40 0.000345692
98 *110:216 *493:74 8.97151e-05
99 *110:230 *1226:A 0.000100625
100 *111:8 *493:38 0
101 *111:191 *493:40 0
102 *113:33 *493:38 0
103 *128:42 *493:55 8.16684e-05
104 *128:42 *493:63 5.36313e-05
105 *259:16 *1283:B 0
106 *289:23 *1283:B 1.21258e-05
107 *289:34 *493:82 0.00013543
108 *289:34 *493:84 5.41794e-05
109 *291:6 *493:74 5.03772e-05
110 *291:12 *493:74 2.59355e-05
111 *291:12 *493:82 9.74808e-05
112 *291:12 *493:84 2.26327e-05
113 *291:14 *1301:A 2.84398e-05
114 *291:14 *493:84 4.58192e-05
115 *304:12 *1246:A 1.01912e-05
116 *304:12 *493:63 0.000298312
117 *308:8 *493:63 0
118 *490:30 *493:38 0
119 *491:47 *493:40 0.000318101
120 *491:57 *1246:A 0
121 *491:57 *493:40 0.000330082
122 *492:18 *493:30 0.000266473
123 *492:18 *493:38 1.92789e-05
124 *492:28 *493:38 0.000356233
125 *492:32 *493:40 5.72753e-05
126 *492:44 *1226:A 5.33005e-05
127 *492:44 *493:74 7.89195e-05
128 *492:48 *493:82 3.15873e-05
129 *492:130 *1518:B1 0.000291452
130 *492:130 *493:38 9.25014e-06
*RES
1 *1543:Q *493:4 9.3 
2 *493:4 *493:14 19.5941 
3 *493:14 *493:26 17.7624 
4 *493:26 *493:30 10.3664 
5 *493:30 *493:38 48.9557 
6 *493:38 *493:40 18.3912 
7 *493:40 *1207:A 10.3149 
8 *493:40 *493:55 8.58079 
9 *493:55 *493:63 9.81547 
10 *493:63 *1186:A_N 9.3 
11 *493:63 *493:74 6.48518 
12 *493:74 *493:82 9.37626 
13 *493:82 *493:84 2.27724 
14 *493:84 *1301:A 14.8149 
15 *493:84 *1283:B 19.8891 
16 *493:82 *1197:C 14.5426 
17 *493:74 *1226:A 12.3198 
18 *493:74 *1176:C_N 9.3 
19 *493:55 *1246:A 18.4353 
20 *493:30 *1518:B1 19.4436 
21 *493:26 *1520:B 15.2159 
22 *493:14 *1522:A 9.3 
23 *493:4 *1517:A 14.6466 
*END

*D_NET *494 0.00205812
*CONN
*I *1505:D I *D sky130_fd_sc_hd__dfrtp_1
*I *1535:Q O *D sky130_fd_sc_hd__dfrtp_1
*CAP
1 *1505:D 0.000496528
2 *1535:Q 0.000496528
3 *1458:A_N *1505:D 1.24368e-05
4 *1467:A *1505:D 4.73656e-05
5 *1467:B *1505:D 7.63214e-05
6 *1490:D *1505:D 0
7 *1505:CLK *1505:D 0.000265726
8 *2:384 *1505:D 0
9 *69:12 *1505:D 2.97187e-05
10 *69:14 *1505:D 0.000115714
11 *75:34 *1505:D 0
12 *103:25 *1505:D 1.46717e-05
13 *103:38 *1505:D 3.28534e-05
14 *442:16 *1505:D 0.000129868
15 *442:33 *1505:D 2.77143e-05
16 *445:36 *1505:D 0.000214658
17 *471:18 *1505:D 9.80173e-05
*RES
1 *1535:Q *1505:D 46.4615 
*END

*D_NET *495 0.000206769
*CONN
*I *1506:D I *D sky130_fd_sc_hd__dfrtp_1
*I *1536:Q O *D sky130_fd_sc_hd__dfrtp_1
*CAP
1 *1506:D 2.7063e-05
2 *1536:Q 2.7063e-05
3 *1506:D *510:12 7.63214e-05
4 *445:22 *1506:D 7.63214e-05
*RES
1 *1536:Q *1506:D 29.8772 
*END

*D_NET *496 0.000533419
*CONN
*I *1507:D I *D sky130_fd_sc_hd__dfrtp_1
*I *1537:Q O *D sky130_fd_sc_hd__dfrtp_1
*CAP
1 *1507:D 0.00017526
2 *1537:Q 0.00017526
3 *1507:D *1537:D 0
4 *1497:D *1507:D 1.55953e-05
5 *445:36 *1507:D 0.00013059
6 *448:16 *1507:D 3.67142e-05
*RES
1 *1537:Q *1507:D 32.8971 
*END

*D_NET *497 0.00127351
*CONN
*I *1508:D I *D sky130_fd_sc_hd__dfrtp_1
*I *1538:Q O *D sky130_fd_sc_hd__dfrtp_1
*CAP
1 *1508:D 0.000408036
2 *1538:Q 0.000408036
3 *1508:D *510:12 7.15962e-05
4 *1479:A *1508:D 2.90655e-05
5 *1484:RESET_B *1508:D 0
6 *1485:D *1508:D 0
7 *1489:CLK *1508:D 7.77751e-05
8 *1503:CLK *1508:D 4.1331e-06
9 *50:52 *1508:D 0
10 *50:54 *1508:D 0
11 *77:60 *1508:D 5.67246e-05
12 *77:71 *1508:D 7.67996e-05
13 *77:89 *1508:D 6.58382e-05
14 *450:16 *1508:D 7.55078e-05
*RES
1 *1538:Q *1508:D 41.907 
*END

*D_NET *498 0.00212918
*CONN
*I *1509:D I *D sky130_fd_sc_hd__dfrtp_1
*I *1521:A I *D sky130_fd_sc_hd__xnor2_1
*I *1519:A I *D sky130_fd_sc_hd__xnor2_1
*I *1539:Q O *D sky130_fd_sc_hd__dfrtp_1
*CAP
1 *1509:D 0.000122212
2 *1521:A 7.30625e-05
3 *1519:A 0.000330343
4 *1539:Q 0
5 *498:6 0.000546605
6 *498:4 0.000265412
7 *1509:D *527:14 5.30637e-06
8 *1519:A *1521:B 1.40131e-05
9 *1519:A *1530:B 0.000273534
10 *1519:A *517:12 0.000127256
11 *1519:A *527:14 3.52031e-05
12 *1521:A *674:12 0.000153054
13 *498:6 *517:12 5.04705e-05
14 *498:6 *527:14 4.02031e-05
15 *1499:D *1509:D 0
16 *1506:CLK *1521:A 0
17 *77:22 *1509:D 7.32272e-05
18 *84:135 *1519:A 1.92789e-05
19 *447:12 *1509:D 0
20 *447:12 *498:6 0
*RES
1 *1539:Q *498:4 9.3 
2 *498:4 *498:6 4.72775 
3 *498:6 *1519:A 20.7605 
4 *498:6 *1521:A 20.998 
5 *498:4 *1509:D 12.7654 
*END

*D_NET *499 0.00237512
*CONN
*I *1526:A I *D sky130_fd_sc_hd__xnor2_1
*I *1527:A0 I *D sky130_fd_sc_hd__mux2_1
*I *1510:Y O *D sky130_fd_sc_hd__clkinv_1
*CAP
1 *1526:A 0.000326646
2 *1527:A0 1.78834e-05
3 *1510:Y 0.000208407
4 *499:10 0.000552936
5 *1526:A *1526:B 0.000104587
6 *1526:A *1527:S 3.92854e-05
7 *1526:A *1531:A_N 8.90199e-05
8 *1526:A *515:10 9.90367e-05
9 *1526:A *520:10 1.05901e-05
10 *499:10 *1527:S 4.35131e-05
11 *1516:A *1526:A 0
12 *1542:RESET_B *499:10 0.000262184
13 *1543:CLK *1526:A 0
14 *82:73 *1527:A0 9.71197e-05
15 *82:73 *499:10 3.40043e-05
16 *82:77 *499:10 0.000127388
17 *82:88 *499:10 1.39726e-05
18 *492:18 *1526:A 2.1527e-05
19 *492:18 *499:10 0.000179071
20 *492:130 *1526:A 0
21 *493:26 *1526:A 0.000147947
22 *493:30 *1526:A 0
*RES
1 *1510:Y *499:10 23.9486 
2 *499:10 *1527:A0 15.1119 
3 *499:10 *1526:A 24.6416 
*END

*D_NET *500 0.000175866
*CONN
*I *1523:B I *D sky130_fd_sc_hd__xnor2_1
*I *1511:Y O *D sky130_fd_sc_hd__nand2b_1
*CAP
1 *1523:B 3.89788e-05
2 *1511:Y 3.89788e-05
3 *1523:B *1514:B 1.71774e-05
4 *491:28 *1523:B 8.07313e-05
*RES
1 *1511:Y *1523:B 20.4812 
*END

*D_NET *501 0.00101946
*CONN
*I *1514:B I *D sky130_fd_sc_hd__xor2_1
*I *1512:Y O *D sky130_fd_sc_hd__nand3b_1
*CAP
1 *1514:B 0.000204024
2 *1512:Y 0.000204024
3 *1514:B *1520:C 1.1979e-05
4 *1514:B *502:8 9.25014e-06
5 *1513:D *1514:B 0.000133005
6 *1523:B *1514:B 1.71774e-05
7 *82:18 *1514:B 0.000312209
8 *490:14 *1514:B 9.90367e-05
9 *491:18 *1514:B 2.87584e-05
10 *491:28 *1514:B 0
*RES
1 *1512:Y *1514:B 35.9169 
*END

*D_NET *502 0.00338319
*CONN
*I *1520:C I *D sky130_fd_sc_hd__nand3_1
*I *1516:B I *D sky130_fd_sc_hd__nor2_1
*I *1518:A2 I *D sky130_fd_sc_hd__a21oi_1
*I *1526:B I *D sky130_fd_sc_hd__xnor2_1
*I *1513:X O *D sky130_fd_sc_hd__and4b_1
*CAP
1 *1520:C 0.000401872
2 *1516:B 1.52126e-05
3 *1518:A2 0
4 *1526:B 8.96414e-05
5 *1513:X 0
6 *502:25 0.000159718
7 *502:8 0.000450143
8 *502:4 0.000617868
9 *1516:B *505:8 0.000144773
10 *1520:C *1515:A 0
11 *1520:C *1527:S 0
12 *1520:C *503:8 0
13 *1520:C *508:22 0.000120664
14 *502:8 *1527:S 0
15 *502:8 *1542:D 0
16 *502:8 *515:10 0
17 *502:25 *1522:C 0
18 *502:25 *505:8 9.90431e-05
19 *1513:D *502:8 2.16719e-05
20 *1514:B *1520:C 1.1979e-05
21 *1514:B *502:8 9.25014e-06
22 *1516:A *1516:B 0.000131439
23 *1516:A *502:25 5.71472e-05
24 *1518:B1 *502:8 0.000131297
25 *1518:B1 *502:25 0.000193592
26 *1526:A *1526:B 0.000104587
27 *1543:CLK *1520:C 4.46186e-06
28 *2:244 *502:25 0
29 *82:12 *1520:C 0
30 *82:12 *502:8 0.000184507
31 *82:18 *1520:C 5.52302e-05
32 *82:73 *1520:C 0
33 *113:33 *502:8 0
34 *113:39 *502:8 0
35 *445:36 *1520:C 0
36 *491:18 *1520:C 0
37 *492:18 *1520:C 0.00024425
38 *492:18 *1526:B 0
39 *492:28 *1526:B 5.39166e-06
40 *492:130 *502:25 2.14757e-05
41 *493:26 *502:25 0
42 *493:30 *1526:B 4.00276e-06
43 *493:38 *502:8 0.000103974
*RES
1 *1513:X *502:4 9.3 
2 *502:4 *502:8 11.8268 
3 *502:8 *1526:B 16.2753 
4 *502:8 *502:25 9.7723 
5 *502:25 *1518:A2 9.3 
6 *502:25 *1516:B 11.1812 
7 *502:4 *1520:C 30.9733 
*END

*D_NET *503 0.00154504
*CONN
*I *1515:A I *D sky130_fd_sc_hd__clkinv_1
*I *1524:A I *D sky130_fd_sc_hd__xnor2_1
*I *1527:S I *D sky130_fd_sc_hd__mux2_1
*I *1514:X O *D sky130_fd_sc_hd__xor2_1
*CAP
1 *1515:A 7.79781e-05
2 *1524:A 0
3 *1527:S 0.000281371
4 *1514:X 7.79387e-05
5 *503:8 0.000437288
6 *1527:S *1524:B 3.34366e-05
7 *1527:S *1527:A1 5.52302e-05
8 *1527:S *508:22 0
9 *1520:B *1527:S 9.90431e-05
10 *1520:C *1515:A 0
11 *1520:C *1527:S 0
12 *1520:C *503:8 0
13 *1526:A *1527:S 3.92854e-05
14 *1543:CLK *1527:S 1.65558e-05
15 *82:73 *1527:S 2.44318e-05
16 *445:36 *1515:A 0.000217141
17 *445:36 *503:8 0.00014183
18 *491:18 *503:8 0
19 *492:18 *1527:S 0
20 *499:10 *1527:S 4.35131e-05
21 *502:8 *1527:S 0
*RES
1 *1514:X *503:8 11.7753 
2 *503:8 *1527:S 26.9387 
3 *503:8 *1524:A 9.3 
4 *503:8 *1515:A 12.3198 
*END

*D_NET *504 0.00204587
*CONN
*I *1517:B I *D sky130_fd_sc_hd__xnor2_1
*I *1522:C I *D sky130_fd_sc_hd__xnor3_1
*I *1516:Y O *D sky130_fd_sc_hd__nor2_1
*CAP
1 *1517:B 0.000552741
2 *1522:C 0.000188471
3 *1516:Y 3.96115e-05
4 *504:6 0.000780824
5 *1517:B *1519:B 4.87854e-05
6 *1517:B *1522:B 0.000136039
7 *1517:B *1531:A_N 0
8 *1517:B *1532:D 0
9 *1517:B *1533:B_N 6.5458e-06
10 *1517:B *1543:D 4.18315e-05
11 *1517:B *505:8 7.17235e-05
12 *1522:C *1531:A_N 6.92148e-06
13 *504:6 *505:8 5.33334e-05
14 *1492:D *1517:B 4.45768e-06
15 *1543:CLK *1522:C 0
16 *1543:RESET_B *1517:B 6.33073e-05
17 *493:14 *1517:B 4.7141e-05
18 *493:26 *1522:C 4.1331e-06
19 *502:25 *1522:C 0
*RES
1 *1516:Y *504:6 10.6119 
2 *504:6 *1522:C 22.6812 
3 *504:6 *1517:B 25.8595 
*END

*D_NET *505 0.0037548
*CONN
*I *1519:B I *D sky130_fd_sc_hd__xnor2_1
*I *1533:A I *D sky130_fd_sc_hd__nor2b_1
*I *1518:Y O *D sky130_fd_sc_hd__a21oi_1
*CAP
1 *1519:B 0.000564243
2 *1533:A 2.06112e-05
3 *1518:Y 0.000167325
4 *505:8 0.000752179
5 *1519:B *1530:B 7.77751e-05
6 *1519:B *1531:A_N 0.000203557
7 *1519:B *1532:C 0.000769168
8 *1519:B *1533:B_N 2.42662e-05
9 *1519:B *1543:D 7.43578e-06
10 *1519:B *1546:A 6.70991e-05
11 *1519:B *520:10 0.000222306
12 *1519:B *522:18 0
13 *505:8 *1531:A_N 0
14 *505:8 *1533:B_N 4.01768e-05
15 *505:8 *1553:A 0
16 *505:8 *1554:B1 0
17 *1496:CLK *1519:B 0
18 *1516:A *1533:A 3.99614e-06
19 *1516:A *505:8 4.58976e-05
20 *1516:B *505:8 0.000144773
21 *1517:B *1519:B 4.87854e-05
22 *1517:B *505:8 7.17235e-05
23 *11:14 *1519:B 0
24 *49:19 *1519:B 0.000115473
25 *84:107 *1519:B 0.000150625
26 *84:135 *1519:B 9.28778e-05
27 *492:130 *505:8 1.21258e-05
28 *502:25 *505:8 9.90431e-05
29 *504:6 *505:8 5.33334e-05
*RES
1 *1518:Y *505:8 16.3297 
2 *505:8 *1533:A 9.89406 
3 *505:8 *1519:B 44.81 
*END

*D_NET *506 0.00402666
*CONN
*I *1521:B I *D sky130_fd_sc_hd__xnor2_1
*I *1533:B_N I *D sky130_fd_sc_hd__nor2b_1
*I *1520:Y O *D sky130_fd_sc_hd__nand3_1
*CAP
1 *1521:B 0.000791974
2 *1533:B_N 0.000197188
3 *1520:Y 9.1995e-05
4 *506:8 0.00108116
5 *1521:B *1528:B 7.21654e-05
6 *1521:B *1532:A 0
7 *1521:B *1532:C 0
8 *1521:B *1532:D 0
9 *1521:B *1534:D 0
10 *1521:B *508:22 0.000268988
11 *1521:B *517:12 0.000170945
12 *1521:B *520:10 0.000228246
13 *1533:B_N *1531:A_N 3.67142e-05
14 *1533:B_N *1543:D 0.000182424
15 *506:8 *508:22 0.000277516
16 *1492:CLK *1521:B 0
17 *1516:A *1533:B_N 1.04232e-05
18 *1517:B *1533:B_N 6.5458e-06
19 *1519:A *1521:B 1.40131e-05
20 *1519:B *1533:B_N 2.42662e-05
21 *1534:RESET_B *1521:B 2.51837e-05
22 *1536:CLK *1521:B 0
23 *2:339 *1521:B 0
24 *2:349 *1521:B 7.48091e-05
25 *82:119 *506:8 0
26 *84:135 *1521:B 0.000102207
27 *112:10 *1521:B 0.000156119
28 *493:14 *1521:B 9.25014e-06
29 *493:14 *1533:B_N 9.33978e-07
30 *493:14 *506:8 0.000131297
31 *493:26 *1533:B_N 3.21228e-05
32 *505:8 *1533:B_N 4.01768e-05
*RES
1 *1520:Y *506:8 18.602 
2 *506:8 *1533:B_N 20.2604 
3 *506:8 *1521:B 43.5774 
*END

*D_NET *507 0.00133829
*CONN
*I *1531:A_N I *D sky130_fd_sc_hd__nand2b_1
*I *1522:X O *D sky130_fd_sc_hd__xnor3_1
*CAP
1 *1531:A_N 0.000434307
2 *1522:X 0.000434307
3 *1531:A_N *520:10 0
4 *1516:A *1531:A_N 5.37963e-05
5 *1517:B *1531:A_N 0
6 *1519:B *1531:A_N 0.000203557
7 *1522:C *1531:A_N 6.92148e-06
8 *1526:A *1531:A_N 8.90199e-05
9 *1533:B_N *1531:A_N 3.67142e-05
10 *1543:CLK *1531:A_N 6.94449e-05
11 *493:26 *1531:A_N 1.02212e-05
12 *505:8 *1531:A_N 0
*RES
1 *1522:X *1531:A_N 41.7585 
*END

*D_NET *508 0.0033433
*CONN
*I *1531:B I *D sky130_fd_sc_hd__nand2b_1
*I *1525:X O *D sky130_fd_sc_hd__xnor3_1
*CAP
1 *1531:B 0
2 *1525:X 0.000667777
3 *508:22 0.000667777
4 *508:22 *1524:B 7.41433e-05
5 *508:22 *1525:C 1.04232e-05
6 *508:22 *513:23 9.7659e-05
7 *508:22 *514:10 0.000132231
8 *508:22 *520:10 0.000298429
9 *1108:A *508:22 0.000165586
10 *1520:A *508:22 0.000198705
11 *1520:C *508:22 0.000120664
12 *1521:B *508:22 0.000268988
13 *1527:S *508:22 0
14 *1543:CLK *508:22 0
15 *2:392 *508:22 0.000363404
16 *82:90 *508:22 0
17 *82:119 *508:22 0
18 *445:36 *508:22 0
19 *506:8 *508:22 0.000277516
*RES
1 *1525:X *508:22 48.1083 
2 *508:22 *1531:B 9.3 
*END

*D_NET *509 0.000890944
*CONN
*I *1532:A I *D sky130_fd_sc_hd__nor4_1
*I *1528:X O *D sky130_fd_sc_hd__xor2_1
*CAP
1 *1532:A 0.000274115
2 *1528:X 0.000274115
3 *1532:A *1528:A 0.00015942
4 *1532:A *1536:D 8.85761e-05
5 *1491:D *1532:A 4.58096e-05
6 *1492:RESET_B *1532:A 4.89081e-05
7 *1521:B *1532:A 0
8 *1536:CLK *1532:A 0
9 *2:355 *1532:A 0
*RES
1 *1528:X *1532:A 36.9812 
*END

*D_NET *510 0.00406505
*CONN
*I *1532:B I *D sky130_fd_sc_hd__nor4_1
*I *1529:Y O *D sky130_fd_sc_hd__xnor2_1
*CAP
1 *1532:B 0.000391634
2 *1529:Y 0.000610785
3 *510:12 0.00100242
4 *510:12 *1529:A 1.02936e-05
5 *510:12 *1529:B 5.33005e-05
6 *510:12 *527:14 0.000107269
7 *1465:B *510:12 0.000207693
8 *1466:C *510:12 3.34366e-05
9 *1477:A_N *1532:B 3.18676e-05
10 *1496:D *1532:B 0
11 *1499:D *510:12 0.000207693
12 *1506:CLK *510:12 0.000403707
13 *1506:D *510:12 7.63214e-05
14 *1508:D *510:12 7.15962e-05
15 *445:20 *510:12 0
16 *445:22 *510:12 0
17 *445:26 *510:12 0
18 *447:12 *510:12 0.000105019
19 *450:16 *510:12 0.000144773
20 *450:18 *510:12 0.000319483
21 *456:8 *1532:B 5.39629e-06
22 *457:8 *510:12 0.000282368
*RES
1 *1529:Y *510:12 47.5823 
2 *510:12 *1532:B 19.1515 
*END

*D_NET *511 0.00250222
*CONN
*I *1532:C I *D sky130_fd_sc_hd__nor4_1
*I *1530:Y O *D sky130_fd_sc_hd__xnor2_1
*CAP
1 *1532:C 0.00045512
2 *1530:Y 0.00045512
3 *1532:C *1534:D 0.000659204
4 *1532:C *520:10 4.00121e-05
5 *1496:D *1532:C 0
6 *1519:B *1532:C 0.000769168
7 *1521:B *1532:C 0
8 *49:19 *1532:C 0.000107784
9 *84:135 *1532:C 1.58163e-05
*RES
1 *1530:Y *1532:C 48.1447 
*END

*D_NET *512 0.00060338
*CONN
*I *1532:D I *D sky130_fd_sc_hd__nor4_1
*I *1531:Y O *D sky130_fd_sc_hd__nand2b_1
*CAP
1 *1532:D 0.00030169
2 *1531:Y 0.00030169
3 *1492:RESET_B *1532:D 0
4 *1517:B *1532:D 0
5 *1521:B *1532:D 0
*RES
1 *1531:Y *1532:D 35.5456 
*END

*D_NET *513 0.00219296
*CONN
*I *1524:B I *D sky130_fd_sc_hd__xnor2_1
*I *1525:C I *D sky130_fd_sc_hd__xnor3_1
*I *1540:D I *D sky130_fd_sc_hd__dfrtp_1
*I *1523:Y O *D sky130_fd_sc_hd__xnor2_1
*CAP
1 *1524:B 0.000160903
2 *1525:C 1.99857e-05
3 *1540:D 0.000177539
4 *1523:Y 4.17746e-05
5 *513:23 0.000294909
6 *513:8 0.000333333
7 *1524:B *1535:D 0
8 *1108:A *1524:B 0
9 *1527:S *1524:B 3.34366e-05
10 *1540:RESET_B *1540:D 0.000107667
11 *1540:RESET_B *513:23 9.71197e-05
12 *2:392 *513:23 8.43535e-06
13 *94:28 *1540:D 0.000205013
14 *94:28 *513:8 7.79781e-06
15 *104:24 *513:8 0
16 *445:36 *1524:B 1.05901e-05
17 *445:36 *513:23 1.57931e-05
18 *445:60 *1524:B 0
19 *445:60 *1540:D 0.000335867
20 *490:14 *513:8 8.49318e-05
21 *490:14 *513:23 5.71472e-05
22 *491:12 *1524:B 0
23 *491:12 *1540:D 6.8646e-06
24 *491:12 *513:8 7.80714e-06
25 *491:18 *513:23 3.81416e-06
26 *491:28 *1540:D 0
27 *508:22 *1524:B 7.41433e-05
28 *508:22 *1525:C 1.04232e-05
29 *508:22 *513:23 9.7659e-05
*RES
1 *1523:Y *513:8 15.6564 
2 *513:8 *1540:D 22.9585 
3 *513:8 *513:23 8.65844 
4 *513:23 *1525:C 9.89406 
5 *513:23 *1524:B 22.7307 
*END

*D_NET *514 0.00180186
*CONN
*I *1525:B I *D sky130_fd_sc_hd__xnor3_1
*I *1541:D I *D sky130_fd_sc_hd__dfrtp_1
*I *1515:Y O *D sky130_fd_sc_hd__clkinv_1
*CAP
1 *1525:B 0
2 *1541:D 0.000326527
3 *1515:Y 0.000108557
4 *514:10 0.000435084
5 *1108:A *1541:D 9.89733e-05
6 *1108:A *514:10 7.33494e-06
7 *2:392 *1541:D 1.51501e-05
8 *2:392 *514:10 0
9 *82:90 *514:10 0
10 *82:92 *1541:D 0
11 *82:92 *514:10 0
12 *444:34 *1541:D 0.000345262
13 *445:36 *514:10 5.33005e-05
14 *445:60 *1541:D 2.76813e-05
15 *491:12 *1541:D 0.000251754
16 *508:22 *514:10 0.000132231
*RES
1 *1515:Y *514:10 17.2406 
2 *514:10 *1541:D 28.4783 
3 *514:10 *1525:B 13.8 
*END

*D_NET *515 0.00141509
*CONN
*I *1527:A1 I *D sky130_fd_sc_hd__mux2_1
*I *1542:D I *D sky130_fd_sc_hd__dfrtp_1
*I *1526:Y O *D sky130_fd_sc_hd__xnor2_1
*CAP
1 *1527:A1 7.27354e-05
2 *1542:D 4.37652e-05
3 *1526:Y 0.000154179
4 *515:10 0.000270679
5 *1520:B *1527:A1 1.54142e-05
6 *1526:A *515:10 9.90367e-05
7 *1527:S *1527:A1 5.52302e-05
8 *82:12 *1542:D 5.2081e-05
9 *82:73 *1527:A1 0.000309273
10 *492:18 *1527:A1 5.33005e-05
11 *492:18 *1542:D 0.000155469
12 *492:18 *515:10 3.17148e-05
13 *493:30 *1527:A1 9.16173e-05
14 *493:30 *515:10 1.05901e-05
15 *502:8 *1542:D 0
16 *502:8 *515:10 0
*RES
1 *1526:Y *515:10 18.2307 
2 *515:10 *1542:D 16.498 
3 *515:10 *1527:A1 17.9584 
*END

*D_NET *516 0.000339236
*CONN
*I *1543:D I *D sky130_fd_sc_hd__dfrtp_1
*I *1533:Y O *D sky130_fd_sc_hd__nor2b_1
*CAP
1 *1543:D 5.37723e-05
2 *1533:Y 5.37723e-05
3 *1517:B *1543:D 4.18315e-05
4 *1519:B *1543:D 7.43578e-06
5 *1533:B_N *1543:D 0.000182424
*RES
1 *1533:Y *1543:D 21.0505 
*END

*D_NET *517 0.00232641
*CONN
*I *1539:D I *D sky130_fd_sc_hd__dfrtp_1
*I *1530:B I *D sky130_fd_sc_hd__xnor2_1
*I *1521:Y O *D sky130_fd_sc_hd__xnor2_1
*CAP
1 *1539:D 0
2 *1530:B 0.000176033
3 *1521:Y 0.000252931
4 *517:12 0.000428964
5 *1530:B *527:14 0.00069761
6 *1519:A *1530:B 0.000273534
7 *1519:A *517:12 0.000127256
8 *1519:B *1530:B 7.77751e-05
9 *1521:B *517:12 0.000170945
10 *2:479 *517:12 0
11 *84:135 *1530:B 0
12 *84:135 *517:12 4.89268e-05
13 *84:144 *517:12 2.19684e-05
14 *498:6 *517:12 5.04705e-05
*RES
1 *1521:Y *517:12 27.8545 
2 *517:12 *1530:B 19.0278 
3 *517:12 *1539:D 9.3 
*END

*D_NET *518 0.0016873
*CONN
*I *1534:D I *D sky130_fd_sc_hd__dfrtp_1
*I *1532:Y O *D sky130_fd_sc_hd__nor4_1
*CAP
1 *1534:D 0.000267874
2 *1532:Y 0.000267874
3 *1534:D *1528:B 0.000174257
4 *1534:D *520:10 0.000155484
5 *1496:D *1534:D 0.000162608
6 *1521:B *1534:D 0
7 *1532:C *1534:D 0.000659204
*RES
1 *1532:Y *1534:D 42.0555 
*END

*D_NET *519 0.00169232
*CONN
*I *1535:D I *D sky130_fd_sc_hd__dfrtp_1
*I *1524:Y O *D sky130_fd_sc_hd__xnor2_1
*CAP
1 *1535:D 0.000425202
2 *1524:Y 0.000425202
3 *1108:A *1535:D 0.000351498
4 *1524:B *1535:D 0
5 *82:92 *1535:D 0
6 *442:33 *1535:D 0.000490416
7 *443:20 *1535:D 0
8 *445:60 *1535:D 0
*RES
1 *1524:Y *1535:D 42.6248 
*END

*D_NET *520 0.00399139
*CONN
*I *1528:B I *D sky130_fd_sc_hd__xor2_1
*I *1536:D I *D sky130_fd_sc_hd__dfrtp_1
*I *1527:X O *D sky130_fd_sc_hd__mux2_1
*CAP
1 *1528:B 3.81829e-05
2 *1536:D 0.00024096
3 *1527:X 0.000483953
4 *520:10 0.000763096
5 *1536:D *1528:A 0
6 *1496:D *1536:D 0.000103217
7 *1496:RESET_B *1536:D 6.36254e-05
8 *1519:B *520:10 0.000222306
9 *1520:B *520:10 0.000217781
10 *1521:B *1528:B 7.21654e-05
11 *1521:B *520:10 0.000228246
12 *1526:A *520:10 1.05901e-05
13 *1531:A_N *520:10 0
14 *1532:A *1536:D 8.85761e-05
15 *1532:C *520:10 4.00121e-05
16 *1534:D *1528:B 0.000174257
17 *1534:D *520:10 0.000155484
18 *1536:CLK *1536:D 0.000186669
19 *1543:CLK *520:10 0.000177066
20 *49:19 *520:10 0.000286879
21 *84:107 *1536:D 0
22 *493:26 *520:10 0
23 *493:30 *520:10 0.0001399
24 *508:22 *520:10 0.000298429
*RES
1 *1527:X *520:10 38.6269 
2 *520:10 *1536:D 23.4783 
3 *520:10 *1528:B 16.9188 
*END

*D_NET *521 0.00117112
*CONN
*I *1537:D I *D sky130_fd_sc_hd__dfrtp_1
*I *1517:Y O *D sky130_fd_sc_hd__xnor2_1
*CAP
1 *1537:D 0.000485906
2 *1517:Y 0.000485906
3 *1537:D *1522:B 0
4 *1492:D *1537:D 4.81157e-05
5 *1497:D *1537:D 0
6 *1507:CLK *1537:D 2.00751e-05
7 *1507:D *1537:D 0
8 *1542:RESET_B *1537:D 0
9 *2:374 *1537:D 4.20435e-05
10 *2:376 *1537:D 8.90769e-05
11 *445:36 *1537:D 0
*RES
1 *1517:Y *1537:D 41.9565 
*END

*D_NET *522 0.00280821
*CONN
*I *1529:B I *D sky130_fd_sc_hd__xnor2_1
*I *1538:D I *D sky130_fd_sc_hd__dfrtp_1
*I *1519:Y O *D sky130_fd_sc_hd__xnor2_1
*CAP
1 *1529:B 0.000436694
2 *1538:D 0
3 *1519:Y 0.000464152
4 *522:18 0.000900846
5 *1529:B *1529:A 5.50285e-05
6 *1529:B *674:12 0
7 *522:18 *527:14 0.000153474
8 *1465:B *1529:B 5.98882e-05
9 *1493:D *1529:B 9.90431e-05
10 *1494:D *1529:B 0
11 *1499:CLK *522:18 9.90431e-05
12 *1499:D *522:18 0.000113286
13 *1519:B *522:18 0
14 *1538:RESET_B *1529:B 4.50774e-05
15 *1679:RESET_B *1529:B 7.48091e-05
16 *2:486 *522:18 1.19402e-05
17 *2:493 *522:18 0.000104086
18 *2:500 *522:18 4.79479e-05
19 *2:600 *522:18 1.69115e-05
20 *51:24 *1529:B 0
21 *84:135 *522:18 2.42082e-05
22 *84:144 *522:18 4.8476e-05
23 *84:159 *522:18 0
24 *84:168 *522:18 0
25 *84:179 *522:18 0
26 *450:16 *1529:B 0
27 *510:12 *1529:B 5.33005e-05
*RES
1 *1519:Y *522:18 44.305 
2 *522:18 *1538:D 9.3 
3 *522:18 *1529:B 31.0476 
*END

*D_NET *523 0.00127787
*CONN
*I *1525:A I *D sky130_fd_sc_hd__xnor3_1
*I *1490:Q O *D sky130_fd_sc_hd__dfrtp_1
*CAP
1 *1525:A 0.000369216
2 *1490:Q 0.000369216
3 *1490:D *1525:A 0.000136346
4 *2:384 *1525:A 1.34703e-05
5 *2:392 *1525:A 8.78006e-05
6 *445:36 *1525:A 0.00030182
*RES
1 *1490:Q *1525:A 33.2288 
*END

*D_NET *524 0.00151489
*CONN
*I *1528:A I *D sky130_fd_sc_hd__xor2_1
*I *1491:Q O *D sky130_fd_sc_hd__dfrtp_1
*CAP
1 *1528:A 0.00049867
2 *1491:Q 0.00049867
3 *1496:D *1528:A 0
4 *1496:RESET_B *1528:A 0
5 *1532:A *1528:A 0.00015942
6 *1536:D *1528:A 0
7 *1536:RESET_B *1528:A 0
8 *2:339 *1528:A 9.74783e-05
9 *2:349 *1528:A 0
10 *84:107 *1528:A 0.000260647
11 *112:10 *1528:A 0
12 *447:12 *1528:A 0
*RES
1 *1491:Q *1528:A 33.7733 
*END

*D_NET *525 0.00191687
*CONN
*I *1522:B I *D sky130_fd_sc_hd__xnor3_1
*I *1492:Q O *D sky130_fd_sc_hd__dfrtp_1
*CAP
1 *1522:B 0.000609318
2 *1492:Q 0.000609318
3 *1522:B *674:12 0
4 *1492:CLK *1522:B 0
5 *1492:D *1522:B 0.000358915
6 *1497:D *1522:B 3.18676e-05
7 *1517:A *1522:B 0
8 *1517:B *1522:B 0.000136039
9 *1537:D *1522:B 0
10 *1543:RESET_B *1522:B 0
11 *82:77 *1522:B 0
12 *493:14 *1522:B 0.000118114
13 *493:26 *1522:B 5.33005e-05
*RES
1 *1492:Q *1522:B 48.0209 
*END

*D_NET *526 0.000255493
*CONN
*I *1529:A I *D sky130_fd_sc_hd__xnor2_1
*I *1493:Q O *D sky130_fd_sc_hd__dfrtp_1
*CAP
1 *1529:A 9.20594e-05
2 *1493:Q 9.20594e-05
3 *1529:B *1529:A 5.50285e-05
4 *1770:CLK *1529:A 0
5 *51:24 *1529:A 0
6 *450:16 *1529:A 6.05161e-06
7 *510:12 *1529:A 1.02936e-05
*RES
1 *1493:Q *1529:A 21.0753 
*END

*D_NET *527 0.00248632
*CONN
*I *1530:A I *D sky130_fd_sc_hd__xnor2_1
*I *1494:Q O *D sky130_fd_sc_hd__dfrtp_1
*CAP
1 *1530:A 0
2 *1494:Q 0.00066938
3 *527:14 0.00066938
4 *527:14 *674:12 0
5 *1494:D *527:14 0
6 *1499:CLK *527:14 2.35589e-05
7 *1499:D *527:14 0
8 *1509:D *527:14 5.30637e-06
9 *1519:A *527:14 3.52031e-05
10 *1530:B *527:14 0.00069761
11 *457:8 *527:14 8.49318e-05
12 *498:6 *527:14 4.02031e-05
13 *510:12 *527:14 0.000107269
14 *522:18 *527:14 0.000153474
*RES
1 *1494:Q *527:14 42.508 
2 *527:14 *1530:A 9.3 
*END

*D_NET *528 0.000311816
*CONN
*I *1643:D I *D sky130_fd_sc_hd__dfrtp_1
*I *1554:Y O *D sky130_fd_sc_hd__a21oi_1
*CAP
1 *1643:D 8.32775e-05
2 *1554:Y 8.32775e-05
3 *1643:D *1560:A2 5.52238e-05
4 *1643:D *1600:A2 1.92789e-05
5 *1643:D *1644:D 7.0758e-05
6 *1643:D *626:10 0
*RES
1 *1554:Y *1643:D 30.6198 
*END

*D_NET *529 0.000937153
*CONN
*I *1644:D I *D sky130_fd_sc_hd__dfrtp_1
*I *1560:Y O *D sky130_fd_sc_hd__o21ai_0
*CAP
1 *1644:D 0.000200481
2 *1560:Y 0.000200481
3 *1644:D *1560:A2 5.52238e-05
4 *1644:D *1600:A2 1.92789e-05
5 *1644:D *626:10 0
6 *1634:A0 *1644:D 5.70616e-05
7 *1643:CLK *1644:D 0.000260573
8 *1643:D *1644:D 7.0758e-05
9 *82:48 *1644:D 7.32955e-05
*RES
1 *1560:Y *1644:D 36.5852 
*END

*D_NET *530 0.000455302
*CONN
*I *1645:D I *D sky130_fd_sc_hd__dfrtp_1
*I *1565:Y O *D sky130_fd_sc_hd__a31oi_1
*CAP
1 *1645:D 9.1853e-05
2 *1565:Y 9.1853e-05
3 *1645:D *1565:A2 0.000180066
4 *1614:A0 *1645:D 7.40943e-05
5 *11:14 *1645:D 1.74352e-05
*RES
1 *1565:Y *1645:D 22.2139 
*END

*D_NET *531 0.00159101
*CONN
*I *1646:D I *D sky130_fd_sc_hd__dfrtp_1
*I *1570:Y O *D sky130_fd_sc_hd__a31oi_1
*CAP
1 *1646:D 0.000421505
2 *1570:Y 0.000421505
3 *1646:D *1567:B1 1.90303e-05
4 *1646:D *1570:A1 1.58163e-05
5 *1646:D *1570:A3 9.08261e-06
6 *1646:D *1583:A1 0.000112039
7 *1646:D *1585:A1 6.58638e-05
8 *1646:D *1627:A1 9.54798e-06
9 *1646:D *586:22 1.98478e-05
10 *1646:D *587:73 1.24368e-05
11 *1646:D *587:94 8.50152e-05
12 *1646:D *625:143 8.30355e-06
13 *1646:D *625:170 5.33005e-05
14 *1646:D *625:183 1.90111e-05
15 *1646:D *626:82 1.40837e-05
16 *1646:D *626:90 1.57849e-05
17 *1646:D *637:33 1.84127e-05
18 *24:9 *1646:D 6.134e-05
19 *83:16 *1646:D 9.02585e-05
20 *83:20 *1646:D 1.97897e-05
21 *83:47 *1646:D 9.90367e-05
*RES
1 *1570:Y *1646:D 40.1681 
*END

*D_NET *532 0.000386568
*CONN
*I *1647:D I *D sky130_fd_sc_hd__dfrtp_1
*I *1575:Y O *D sky130_fd_sc_hd__a31oi_1
*CAP
1 *1647:D 6.64478e-05
2 *1575:Y 6.64478e-05
3 *1647:D *1575:A1 0.000106914
4 *1647:D *1575:A2 1.33343e-05
5 *1647:D *1575:A3 2.65105e-05
6 *1647:D *651:14 0.000106914
7 *106:26 *1647:D 0
*RES
1 *1575:Y *1647:D 30.7683 
*END

*D_NET *533 0.000354428
*CONN
*I *1648:D I *D sky130_fd_sc_hd__dfrtp_1
*I *1580:Y O *D sky130_fd_sc_hd__a31oi_1
*CAP
1 *1648:D 8.66015e-05
2 *1580:Y 8.66015e-05
3 *1648:D *1580:A2 5.19842e-06
4 *1648:D *1580:B1 2.89114e-05
5 *1648:D *587:32 6.17013e-05
6 *1648:D *602:30 9.22103e-06
7 *1648:CLK *1648:D 7.61932e-05
*RES
1 *1580:Y *1648:D 22.3871 
*END

*D_NET *534 0.00213801
*CONN
*I *1649:D I *D sky130_fd_sc_hd__dfrtp_1
*I *1585:Y O *D sky130_fd_sc_hd__a21oi_1
*CAP
1 *1649:D 0.000524554
2 *1585:Y 0.000524554
3 *1649:D *1585:B1 0.000108986
4 *1649:D *1627:A1 4.62969e-05
5 *1649:D *630:12 4.43256e-05
6 *1603:A1 *1649:D 0.000154993
7 *1637:A0 *1649:D 1.91418e-05
8 *1649:CLK *1649:D 4.89174e-05
9 *1649:RESET_B *1649:D 0
10 *83:8 *1649:D 5.52302e-05
11 *83:75 *1649:D 2.8266e-06
12 *83:122 *1649:D 4.38128e-05
13 *108:8 *1649:D 4.88104e-05
14 *108:180 *1649:D 0.000438788
15 *108:192 *1649:D 7.67762e-05
*RES
1 *1585:Y *1649:D 47.1298 
*END

*D_NET *535 0.000573775
*CONN
*I *1650:D I *D sky130_fd_sc_hd__dfrtp_1
*I *1590:Y O *D sky130_fd_sc_hd__a31oi_1
*CAP
1 *1650:D 0.000101892
2 *1590:Y 0.000101892
3 *1650:D *1588:B 0
4 *1650:D *1590:A3 0.000158757
5 *20:13 *1650:D 0.000129387
6 *30:13 *1650:D 1.02504e-05
7 *105:200 *1650:D 7.15962e-05
*RES
1 *1590:Y *1650:D 32.3277 
*END

*D_NET *536 0.00117988
*CONN
*I *1651:D I *D sky130_fd_sc_hd__dfrtp_1
*I *1595:Y O *D sky130_fd_sc_hd__a31oi_1
*CAP
1 *1651:D 0.000299735
2 *1595:Y 0.000299735
3 *1651:D *1595:A2 2.44318e-05
4 *1651:D *1597:A 4.20528e-05
5 *1651:D *1597:C 0.00011601
6 *1651:D *1598:B1 6.97494e-05
7 *1651:D *626:58 0
8 *1344:CLK *1651:D 5.66157e-05
9 *1651:CLK *1651:D 2.59355e-05
10 *2:120 *1651:D 0.00022459
11 *93:68 *1651:D 0
12 *93:72 *1651:D 0
13 *110:216 *1651:D 1.02504e-05
14 *493:40 *1651:D 1.07719e-05
*RES
1 *1595:Y *1651:D 38.4169 
*END

*D_NET *537 0.00126914
*CONN
*I *1652:D I *D sky130_fd_sc_hd__dfrtp_1
*I *1600:Y O *D sky130_fd_sc_hd__a31oi_1
*CAP
1 *1652:D 0.000239008
2 *1600:Y 0.000239008
3 *1652:D *1594:B 0.000131491
4 *1652:D *1600:A2 5.52302e-05
5 *1652:D *1600:A3 3.53108e-05
6 *1652:D *581:122 4.81132e-05
7 *1652:CLK *1652:D 2.89114e-05
8 *81:84 *1652:D 0
9 *106:115 *1652:D 0.000481292
10 *493:38 *1652:D 1.07719e-05
*RES
1 *1600:Y *1652:D 37.6743 
*END

*D_NET *538 0.000787457
*CONN
*I *1653:D I *D sky130_fd_sc_hd__dfrtp_1
*I *1602:X O *D sky130_fd_sc_hd__a32o_1
*CAP
1 *1653:D 0.000145765
2 *1602:X 0.000145765
3 *1653:D *581:29 9.41642e-05
4 *1653:D *583:18 2.79421e-05
5 *1653:D *618:14 7.49063e-05
6 *1653:D *626:10 8.53624e-05
7 *1653:D *627:62 9.89509e-05
8 *1602:A3 *1653:D 0.000114601
*RES
1 *1602:X *1653:D 33.7139 
*END

*D_NET *539 0.0010881
*CONN
*I *1654:D I *D sky130_fd_sc_hd__dfrtp_1
*I *1604:Y O *D sky130_fd_sc_hd__nand2_1
*CAP
1 *1654:D 0.000300055
2 *1604:Y 0.000300055
3 *1654:D *1546:B 2.8266e-06
4 *1654:D *627:8 0.000158893
5 *1654:D *627:14 0.000129913
6 *1496:CLK *1654:D 0
7 *1654:RESET_B *1654:D 5.048e-05
8 *2:276 *1654:D 0
9 *84:23 *1654:D 0.000145873
*RES
1 *1604:Y *1654:D 37.4515 
*END

*D_NET *540 0.00101692
*CONN
*I *1655:D I *D sky130_fd_sc_hd__dfrtp_1
*I *1606:X O *D sky130_fd_sc_hd__a31o_1
*CAP
1 *1655:D 0.000183255
2 *1606:X 0.000183255
3 *1655:D *1604:B 0.000291091
4 *1655:D *1606:B1 6.96405e-05
5 *1655:D *582:14 9.25014e-06
6 *1655:D *583:18 0
7 *1655:D *618:14 5.21933e-05
8 *1655:D *623:6 9.46083e-05
9 *1655:D *626:202 2.79421e-05
10 *1655:D *627:62 0.000105689
*RES
1 *1606:X *1655:D 34.7535 
*END

*D_NET *541 0.00022572
*CONN
*I *1656:D I *D sky130_fd_sc_hd__dfrtp_1
*I *1607:X O *D sky130_fd_sc_hd__mux2_1
*CAP
1 *1656:D 2.51014e-05
2 *1607:X 2.51014e-05
3 *1656:D *580:78 3.68039e-06
4 uart_tx_out *1656:D 8.49318e-05
5 *1665:RESET_B *1656:D 3.68039e-06
6 *49:19 *1656:D 8.32242e-05
*RES
1 *1607:X *1656:D 29.2894 
*END

*D_NET *542 0.000846671
*CONN
*I *1657:D I *D sky130_fd_sc_hd__dfrtp_1
*I *1608:X O *D sky130_fd_sc_hd__mux2_1
*CAP
1 *1657:D 0.000259157
2 *1608:X 0.000259157
3 *1657:D *1561:A 6.22567e-05
4 *1657:D *1561:B 0
5 *1657:D *1608:A1 5.51805e-05
6 *1657:D *580:101 2.59355e-05
7 *1657:D *586:32 0.000131684
8 *1657:D *586:42 5.33005e-05
*RES
1 *1608:X *1657:D 26.6941 
*END

*D_NET *543 0.00239267
*CONN
*I *1658:D I *D sky130_fd_sc_hd__dfrtp_1
*I *1609:X O *D sky130_fd_sc_hd__mux2_1
*CAP
1 *1658:D 0.000453062
2 *1609:X 0.000453062
3 *1658:D *1575:A2 0.000342302
4 *1658:D *580:192 8.43535e-06
5 *1658:D *637:10 2.79421e-05
6 *1658:D *651:14 6.05161e-06
7 *1658:RESET_B *1658:D 2.29097e-05
8 *14:5 *1658:D 0.000350497
9 *26:5 *1658:D 0.000352919
10 *106:26 *1658:D 3.05434e-05
11 *108:194 *1658:D 0.000344943
*RES
1 *1609:X *1658:D 47.105 
*END

*D_NET *544 0.000830063
*CONN
*I *1659:D I *D sky130_fd_sc_hd__dfrtp_1
*I *1610:X O *D sky130_fd_sc_hd__mux2_1
*CAP
1 *1659:D 0.000249099
2 *1610:X 0.000249099
3 *1659:D *1579:B2 1.61354e-05
4 *1613:A0 *1659:D 8.3722e-05
5 *1626:A0 *1659:D 6.09773e-05
6 *1659:RESET_B *1659:D 5.75147e-05
7 *22:5 *1659:D 8.15095e-05
8 *106:113 *1659:D 3.2006e-05
9 *108:194 *1659:D 0
*RES
1 *1610:X *1659:D 36.0654 
*END

*D_NET *545 0.000609051
*CONN
*I *1660:D I *D sky130_fd_sc_hd__dfrtp_1
*I *1611:X O *D sky130_fd_sc_hd__mux2_1
*CAP
1 *1660:D 0.000130984
2 *1611:X 0.000130984
3 *1660:D *580:318 7.84241e-05
4 *1660:D *586:65 0.000133005
5 *1615:A0 *1660:D 0.000134719
6 *1660:RESET_B *1660:D 9.33978e-07
7 *2:22 *1660:D 0
*RES
1 *1611:X *1660:D 32.8971 
*END

*D_NET *546 0.000464146
*CONN
*I *1661:D I *D sky130_fd_sc_hd__dfrtp_1
*I *1612:X O *D sky130_fd_sc_hd__mux2_1
*CAP
1 *1661:D 0.000193227
2 *1612:X 0.000193227
3 *1661:D *1636:S 2.90043e-05
4 *1661:D *1642:A1 0
5 *1661:D *1690:D 4.86871e-05
*RES
1 *1612:X *1661:D 24.4169 
*END

*D_NET *547 0.000669319
*CONN
*I *1662:D I *D sky130_fd_sc_hd__dfrtp_1
*I *1613:X O *D sky130_fd_sc_hd__mux2_1
*CAP
1 *1662:D 7.4632e-05
2 *1613:X 7.4632e-05
3 *1662:D *1591:B2 0.000131929
4 *1662:D *1675:D 7.63214e-05
5 *1662:D *581:97 0
6 *1659:CLK *1662:D 0.000134719
7 *93:110 *1662:D 0.000177085
*RES
1 *1613:X *1662:D 32.8228 
*END

*D_NET *548 0.000520728
*CONN
*I *1663:D I *D sky130_fd_sc_hd__dfrtp_1
*I *1614:X O *D sky130_fd_sc_hd__mux2_1
*CAP
1 *1663:D 0.000149642
2 *1614:X 0.000149642
3 *1663:D *1596:A1 5.00934e-05
4 *1663:D *579:12 3.61797e-05
5 *1663:D *580:45 3.42164e-05
6 *1663:D *640:6 1.92905e-05
7 *1663:D *658:14 0
8 *44:23 *1663:D 8.16635e-05
*RES
1 *1614:X *1663:D 32.6805 
*END

*D_NET *549 0.000602081
*CONN
*I *1664:D I *D sky130_fd_sc_hd__dfrtp_1
*I *1615:X O *D sky130_fd_sc_hd__mux2_1
*CAP
1 *1664:D 0.000210872
2 *1615:X 0.000210872
3 *1615:A0 *1664:D 0
4 *2:36 *1664:D 2.40379e-05
5 *80:112 *1664:D 9.0145e-05
6 *80:119 *1664:D 6.61546e-05
*RES
1 *1615:X *1664:D 25.3884 
*END

*D_NET *550 0.00114512
*CONN
*I *1665:D I *D sky130_fd_sc_hd__dfrtp_1
*I *1616:X O *D sky130_fd_sc_hd__mux2_1
*CAP
1 *1665:D 0.000244685
2 *1616:X 0.000244685
3 *1665:D *1635:S 0.000439692
4 *1665:D *626:90 1.01912e-05
5 *1625:A0 *1665:D 5.73423e-05
6 *1635:A0 *1665:D 3.81416e-06
7 *1656:CLK *1665:D 9.33978e-07
8 *1665:CLK *1665:D 4.74869e-05
9 *17:11 *1665:D 9.62881e-05
*RES
1 *1616:X *1665:D 37.1545 
*END

*D_NET *551 0.00174242
*CONN
*I *1666:D I *D sky130_fd_sc_hd__dfrtp_1
*I *1617:X O *D sky130_fd_sc_hd__mux2_1
*CAP
1 *1666:D 0.000238827
2 *1617:X 0.000238827
3 *1666:D *1574:A1 4.35306e-05
4 *1666:D *1589:B1 1.07719e-05
5 *1666:D *637:33 0.000219711
6 *37:9 *1666:D 0.000497447
7 *40:11 *1666:D 0.00049331
*RES
1 *1617:X *1666:D 39.209 
*END

*D_NET *552 0.00156257
*CONN
*I *1667:D I *D sky130_fd_sc_hd__dfrtp_1
*I *1618:X O *D sky130_fd_sc_hd__mux2_1
*CAP
1 *1667:D 0.000335668
2 *1618:X 0.000335668
3 *1667:D *631:14 0.000359641
4 *1667:RESET_B *1667:D 5.25816e-05
5 *1678:RESET_B *1667:D 0.000128868
6 *2:134 *1667:D 2.14658e-05
7 *93:42 *1667:D 7.77652e-05
8 *93:62 *1667:D 0.000169864
9 *271:16 *1667:D 8.10497e-05
*RES
1 *1618:X *1667:D 42.9466 
*END

*D_NET *553 0.00102509
*CONN
*I *1668:D I *D sky130_fd_sc_hd__dfrtp_1
*I *1619:X O *D sky130_fd_sc_hd__mux2_1
*CAP
1 *1668:D 0.000265225
2 *1619:X 0.000265225
3 *1668:D *1586:A 1.02504e-05
4 *1668:D *1612:A1 0.000188671
5 *1628:A0 *1668:D 0.000131297
6 *2:36 *1668:D 0
7 *39:17 *1668:D 0.000164425
*RES
1 *1619:X *1668:D 35.9169 
*END

*D_NET *554 0.00110902
*CONN
*I *1669:D I *D sky130_fd_sc_hd__dfrtp_1
*I *1620:X O *D sky130_fd_sc_hd__mux2_1
*CAP
1 *1669:D 0.000250693
2 *1620:X 0.000250693
3 *1669:D *1589:A2 6.70847e-05
4 *1669:D *1589:C1 0.000287885
5 *1669:RESET_B *1669:D 0.000171154
6 *22:5 *1669:D 0
7 *37:9 *1669:D 8.15095e-05
*RES
1 *1620:X *1669:D 36.808 
*END

*D_NET *555 0.0027083
*CONN
*I *1670:D I *D sky130_fd_sc_hd__dfrtp_1
*I *1621:X O *D sky130_fd_sc_hd__mux2_1
*CAP
1 *1670:D 0.000516989
2 *1621:X 0.000516989
3 *1670:D *1577:C 0.000181787
4 *1670:D *1637:S 0.000136951
5 *1670:D *1686:D 0.000374261
6 *1670:D *580:133 0.000479652
7 *1670:D *625:55 2.77173e-05
8 *1670:D *625:65 1.94879e-05
9 *1670:D *626:42 5.48376e-05
10 *1670:D *626:58 0
11 *1637:A0 *1670:D 8.81701e-05
12 *1648:CLK *1670:D 7.36467e-05
13 *2:191 *1670:D 0
14 *2:201 *1670:D 0
15 *81:88 *1670:D 7.58664e-05
16 *81:97 *1670:D 7.58829e-05
17 *107:14 *1670:D 0
18 *109:107 *1670:D 0
19 *492:28 *1670:D 2.89114e-05
20 *493:38 *1670:D 5.71472e-05
*RES
1 *1621:X *1670:D 49.6793 
*END

*D_NET *556 0.000568002
*CONN
*I *1671:D I *D sky130_fd_sc_hd__dfrtp_1
*I *1622:X O *D sky130_fd_sc_hd__mux2_1
*CAP
1 *1671:D 0.000125658
2 *1622:X 0.000125658
3 *1671:D *1591:A2 4.67392e-05
4 *1671:D *1595:B1 0.000107165
5 *1671:D *1598:B1 0.000123902
6 *93:68 *1671:D 3.88799e-05
*RES
1 *1622:X *1671:D 33.6149 
*END

*D_NET *557 0.00111388
*CONN
*I *1672:D I *D sky130_fd_sc_hd__dfrtp_1
*I *1623:X O *D sky130_fd_sc_hd__mux2_1
*CAP
1 *1672:D 0.000340419
2 *1623:X 0.000340419
3 *1672:D *1564:B2 0
4 *1672:D *1589:C1 0
5 *1672:D *1615:A1 5.92068e-05
6 *1672:D *580:297 8.48705e-05
7 *1672:RESET_B *1672:D 2.29097e-05
8 *1684:RESET_B *1672:D 0.000137548
9 *2:63 *1672:D 0
10 *40:11 *1672:D 0.000128506
*RES
1 *1623:X *1672:D 38.4416 
*END

*D_NET *558 0.000741079
*CONN
*I *1673:D I *D sky130_fd_sc_hd__dfrtp_1
*I *1624:X O *D sky130_fd_sc_hd__mux2_1
*CAP
1 *1673:D 0.000187554
2 *1624:X 0.000187554
3 *1673:D *1575:A2 5.52238e-05
4 *1682:RESET_B *1673:D 5.71239e-05
5 *26:5 *1673:D 4.35131e-05
6 *106:26 *1673:D 0.000210109
*RES
1 *1624:X *1673:D 35.1557 
*END

*D_NET *559 0.000774457
*CONN
*I *1674:D I *D sky130_fd_sc_hd__dfrtp_1
*I *1625:X O *D sky130_fd_sc_hd__mux2_1
*CAP
1 *1674:D 0.000113333
2 *1625:X 0.000113333
3 *1674:D *1574:A1 0.000185289
4 *1674:D *1617:A1 0.000105689
5 *1674:D *588:85 7.61932e-05
6 *1674:D *637:33 7.66462e-05
7 *35:7 *1674:D 0.000103974
*RES
1 *1625:X *1674:D 33.2188 
*END

*D_NET *560 0.000641081
*CONN
*I *1675:D I *D sky130_fd_sc_hd__dfrtp_1
*I *1626:X O *D sky130_fd_sc_hd__mux2_1
*CAP
1 *1675:D 0.000172702
2 *1626:X 0.000172702
3 *1675:D *580:139 6.42095e-05
4 *1675:D *580:141 6.87574e-05
5 *1675:D *580:143 2.89114e-05
6 *1675:D *581:97 5.2081e-05
7 *1675:D *586:86 5.39629e-06
8 *1662:D *1675:D 7.63214e-05
*RES
1 *1626:X *1675:D 34.0357 
*END

*D_NET *561 0.000675165
*CONN
*I *1676:D I *D sky130_fd_sc_hd__dfrtp_1
*I *1627:X O *D sky130_fd_sc_hd__mux2_1
*CAP
1 *1676:D 0.000132637
2 *1627:X 0.000132637
3 *1676:D *1585:B1 0.000171754
4 *1621:A0 *1676:D 0
5 *1674:RESET_B *1676:D 0.000105682
6 *2:623 *1676:D 5.52238e-05
7 *83:47 *1676:D 6.57032e-05
8 *108:180 *1676:D 1.15281e-05
*RES
1 *1627:X *1676:D 32.6495 
*END

*D_NET *562 0.00117084
*CONN
*I *1677:D I *D sky130_fd_sc_hd__dfrtp_1
*I *1628:X O *D sky130_fd_sc_hd__mux2_1
*CAP
1 *1677:D 0.000319198
2 *1628:X 0.000319198
3 *1677:D *1572:B 0
4 *1677:D *1587:C 0
5 *1677:D *1601:A1 0
6 *1677:D *1601:A3 0
7 *1677:D *1612:A1 0
8 *1677:D *664:8 0
9 *1636:A0 *1677:D 0.000141829
10 *1668:CLK *1677:D 0
11 *26:5 *1677:D 0.000320714
12 *39:17 *1677:D 0
13 *109:34 *1677:D 6.98971e-05
*RES
1 *1628:X *1677:D 37.9713 
*END

*D_NET *563 0.000485822
*CONN
*I *1678:D I *D sky130_fd_sc_hd__dfrtp_1
*I *1629:X O *D sky130_fd_sc_hd__mux2_1
*CAP
1 *1678:D 0.000202546
2 *1629:X 0.000202546
3 *1678:D *1549:A 8.07313e-05
4 *93:14 *1678:D 0
*RES
1 *1629:X *1678:D 33.4664 
*END

*D_NET *564 0.00175251
*CONN
*I *1679:D I *D sky130_fd_sc_hd__dfrtp_1
*I *1630:X O *D sky130_fd_sc_hd__mux2_1
*CAP
1 *1679:D 0.000453969
2 *1630:X 0.000453969
3 *1679:D *1630:A1 0
4 *1679:D *1630:S 5.52238e-05
5 *1679:D *1680:D 0.00027891
6 *1679:D *580:64 0
7 *1679:D *658:14 1.1979e-05
8 *1679:CLK *1679:D 0.000312184
9 *1688:RESET_B *1679:D 0.000134514
10 *2:523 *1679:D 5.17614e-05
*RES
1 *1630:X *1679:D 43.8872 
*END

*D_NET *565 0.00153531
*CONN
*I *1680:D I *D sky130_fd_sc_hd__dfrtp_1
*I *1631:X O *D sky130_fd_sc_hd__mux2_1
*CAP
1 *1680:D 0.000386931
2 *1631:X 0.000386931
3 *1680:D *1630:A1 0.000187902
4 *1680:D *1630:S 0.000117621
5 *1680:D *580:74 0.000148105
6 *1680:D *580:446 2.89114e-05
7 *1679:D *1680:D 0.00027891
*RES
1 *1631:X *1680:D 42.9219 
*END

*D_NET *566 0.000244068
*CONN
*I *1681:D I *D sky130_fd_sc_hd__dfrtp_1
*I *1632:X O *D sky130_fd_sc_hd__mux2_1
*CAP
1 *1681:D 7.01883e-05
2 *1632:X 7.01883e-05
3 *1681:D *1567:B1 5.52238e-05
4 *1681:D *581:198 0
5 *1681:D *625:183 0
6 *29:13 *1681:D 9.25014e-06
7 *84:34 *1681:D 3.92169e-05
*RES
1 *1632:X *1681:D 30.199 
*END

*D_NET *567 0.00101506
*CONN
*I *1682:D I *D sky130_fd_sc_hd__dfrtp_1
*I *1633:X O *D sky130_fd_sc_hd__mux2_1
*CAP
1 *1682:D 0.00029308
2 *1633:X 0.00029308
3 *1119:A *1682:D 7.77751e-05
4 *1178:A0 *1682:D 0
5 *1682:CLK *1682:D 0
6 *1682:RESET_B *1682:D 0
7 *80:6 *1682:D 8.76257e-05
8 *80:12 *1682:D 0.000186669
9 *80:93 *1682:D 6.87574e-05
10 *105:200 *1682:D 8.07397e-06
*RES
1 *1633:X *1682:D 37.6001 
*END

*D_NET *568 0.00120001
*CONN
*I *1683:D I *D sky130_fd_sc_hd__dfrtp_1
*I *1634:X O *D sky130_fd_sc_hd__mux2_1
*CAP
1 *1683:D 0.000233361
2 *1634:X 0.000233361
3 *1683:D *1577:C 0.000208918
4 *1683:D *1634:A1 9.87672e-05
5 *1683:D *1634:S 0.0004256
6 *1578:A *1683:D 0
*RES
1 *1634:X *1683:D 29.6149 
*END

*D_NET *569 0.00108469
*CONN
*I *1684:D I *D sky130_fd_sc_hd__dfrtp_1
*I *1635:X O *D sky130_fd_sc_hd__mux2_1
*CAP
1 *1684:D 0.000202289
2 *1635:X 0.000202289
3 *1684:D *1584:C1 4.38056e-05
4 *1684:D *1623:A1 1.856e-05
5 *1684:D *586:42 6.77937e-05
6 *1684:D *609:28 0.000256665
7 *11:22 *1684:D 0.000293289
*RES
1 *1635:X *1684:D 35.8426 
*END

*D_NET *570 0.000386474
*CONN
*I *1685:D I *D sky130_fd_sc_hd__dfrtp_1
*I *1636:X O *D sky130_fd_sc_hd__mux2_1
*CAP
1 *1685:D 0.000150301
2 *1636:X 0.000150301
3 *109:34 *1685:D 8.5872e-05
*RES
1 *1636:X *1685:D 24.2188 
*END

*D_NET *571 0.000987071
*CONN
*I *1686:D I *D sky130_fd_sc_hd__dfrtp_1
*I *1637:X O *D sky130_fd_sc_hd__mux2_1
*CAP
1 *1686:D 0.000137411
2 *1637:X 0.000137411
3 *1686:D *1577:C 0.000201592
4 *1686:D *1600:A2 2.59355e-05
5 *1686:D *625:55 5.52302e-05
6 *1578:A *1686:D 5.52302e-05
7 *1670:D *1686:D 0.000374261
*RES
1 *1637:X *1686:D 35.5703 
*END

*D_NET *572 0.00139237
*CONN
*I *1687:D I *D sky130_fd_sc_hd__dfrtp_1
*I *1638:X O *D sky130_fd_sc_hd__mux2_1
*CAP
1 *1687:D 0.00028839
2 *1638:X 0.00028839
3 *1687:D *1597:A 0.000301703
4 *1687:D *616:12 0
5 *1687:D *631:14 0.000202842
6 *271:16 *1687:D 0.000311041
*RES
1 *1638:X *1687:D 40.4218 
*END

*D_NET *573 0.00113357
*CONN
*I *1688:D I *D sky130_fd_sc_hd__dfrtp_1
*I *1639:X O *D sky130_fd_sc_hd__mux2_1
*CAP
1 *1688:D 0.000416156
2 *1639:X 0.000416156
3 *1688:D *1630:A1 0
4 *1688:D *1639:S 3.18676e-05
5 *1688:D *645:10 5.17416e-05
6 *1688:D *661:10 0
7 *1688:RESET_B *1688:D 0.000113845
8 *50:19 *1688:D 0.000103802
*RES
1 *1639:X *1688:D 40.4218 
*END

*D_NET *574 0.00152329
*CONN
*I *1689:D I *D sky130_fd_sc_hd__dfrtp_1
*I *1640:X O *D sky130_fd_sc_hd__mux2_1
*CAP
1 *1689:D 0.000657552
2 *1640:X 0.000657552
3 *1689:D *1642:A1 1.03968e-05
4 *1689:D *1642:S 8.07313e-05
5 *1689:D *1691:D 1.05947e-05
6 *1689:D *580:373 0
7 *1642:A0 *1689:D 0.000106467
8 *1689:CLK *1689:D 0
9 *1690:RESET_B *1689:D 0
*RES
1 *1640:X *1689:D 46.7338 
*END

*D_NET *575 0.00189831
*CONN
*I *1690:D I *D sky130_fd_sc_hd__dfrtp_1
*I *1641:X O *D sky130_fd_sc_hd__mux2_1
*CAP
1 *1690:D 0.000593702
2 *1641:X 0.000593702
3 *1690:D *1601:A2 3.17148e-05
4 *1690:D *1641:A1 0.00020657
5 *1690:D *1642:A1 0.000141172
6 *1690:D *1691:D 0
7 *1690:D *580:347 0
8 *1690:D *580:373 5.52302e-05
9 *1690:D *663:8 0.000227532
10 *1661:D *1690:D 4.86871e-05
11 *1691:RESET_B *1690:D 0
12 *2:716 *1690:D 0
*RES
1 *1641:X *1690:D 45.7684 
*END

*D_NET *576 0.00082288
*CONN
*I *1691:D I *D sky130_fd_sc_hd__dfrtp_1
*I *1642:X O *D sky130_fd_sc_hd__mux2_1
*CAP
1 *1691:D 0.000406143
2 *1642:X 0.000406143
3 *1689:D *1691:D 1.05947e-05
4 *1690:CLK *1691:D 0
5 *1690:D *1691:D 0
*RES
1 *1642:X *1691:D 37.9713 
*END

*D_NET *577 0.00419065
*CONN
*I *1546:A I *D sky130_fd_sc_hd__nor2_1
*I *1606:A1 I *D sky130_fd_sc_hd__a31o_1
*I *1605:A I *D sky130_fd_sc_hd__nor3_1
*I *1603:B1 I *D sky130_fd_sc_hd__o211ai_1
*I *1544:Y O *D sky130_fd_sc_hd__clkinv_1
*CAP
1 *1546:A 0.000362119
2 *1606:A1 0
3 *1605:A 7.93568e-05
4 *1603:B1 4.96056e-05
5 *1544:Y 0
6 *577:20 0.000168562
7 *577:18 0.000480715
8 *577:4 0.000803234
9 *1546:A *1546:B 0
10 *1546:A *627:8 5.30637e-06
11 *1603:B1 *1603:A2 0.00018372
12 *1603:B1 *1603:C1 9.71197e-05
13 *1603:B1 *623:6 1.98839e-05
14 *1605:A *1603:C1 0.000150618
15 *1605:A *1606:B1 5.33005e-05
16 *1605:A *581:20 0.000173804
17 *1605:A *627:26 5.52238e-05
18 *577:18 *1544:A 1.32552e-05
19 *577:18 *1551:A 0.00012728
20 *577:18 *1604:A 0.000230448
21 *577:18 *1604:B 4.44976e-05
22 *577:18 *581:16 5.33005e-05
23 *577:18 *627:8 0.000131655
24 *577:18 *627:14 0.000106442
25 *577:18 *627:18 6.12335e-05
26 *577:20 *1603:A2 9.60939e-05
27 *577:20 *1604:B 1.96677e-05
28 *577:20 *623:6 2.01e-05
29 *577:20 *627:18 5.52302e-05
30 *1496:CLK *1546:A 7.77751e-05
31 *1496:D *1546:A 1.58213e-06
32 *1519:B *1546:A 6.70991e-05
33 *1603:A1 *577:18 0.000224161
34 *1603:A1 *577:20 1.69961e-05
35 *1605:C *1603:B1 0
36 *1634:A0 *1605:A 6.8646e-06
37 *2:339 *1546:A 0
38 *84:8 *1546:A 0
39 *84:97 *1546:A 5.52238e-05
40 *84:107 *1546:A 7.92879e-05
41 *112:93 *577:18 1.98839e-05
*RES
1 *1544:Y *577:4 9.3 
2 *577:4 *577:18 16.5595 
3 *577:18 *577:20 1.8812 
4 *577:20 *1603:B1 11.7505 
5 *577:20 *1605:A 22.1614 
6 *577:18 *1606:A1 9.3 
7 *577:4 *1546:A 29.4139 
*END

*D_NET *578 0.000906499
*CONN
*I *1560:A1 I *D sky130_fd_sc_hd__o21ai_0
*I *1545:Y O *D sky130_fd_sc_hd__clkinv_1
*CAP
1 *1560:A1 0.000143644
2 *1545:Y 0.000143644
3 *1560:A1 *1554:A1 4.08637e-05
4 *1560:A1 *1554:A2 5.52302e-05
5 *1560:A1 *1554:B1 7.25614e-05
6 *1560:A1 *1560:A2 5.23057e-05
7 *1560:A1 *1600:A2 0
8 *1560:A1 *583:18 8.03794e-05
9 *1560:A1 *625:39 0.000231382
10 *1560:A1 *626:14 4.46231e-06
11 *1653:CLK *1560:A1 8.20268e-05
*RES
1 *1545:Y *1560:A1 34.3822 
*END

*D_NET *579 0.00272799
*CONN
*I *1548:D I *D sky130_fd_sc_hd__or4_1
*I *1547:Y O *D sky130_fd_sc_hd__nand2_1
*CAP
1 *1548:D 0
2 *1547:Y 0.000537033
3 *579:12 0.000537033
4 *579:12 *1562:B 1.5942e-05
5 *579:12 *1565:A2 0.000397599
6 *579:12 *1602:B2 0.000548899
7 *579:12 *580:36 0
8 *579:12 *580:45 0
9 *579:12 *618:14 3.26388e-05
10 *579:12 *629:8 0
11 *579:12 *645:10 8.32171e-05
12 *1663:D *579:12 3.61797e-05
13 *84:57 *579:12 0.000223266
14 *104:10 *579:12 3.60533e-05
15 *105:186 *579:12 0.00028013
*RES
1 *1547:Y *579:12 42.3595 
2 *579:12 *1548:D 9.3 
*END

*D_NET *580 0.0448182
*CONN
*I *1630:S I *D sky130_fd_sc_hd__mux2_1
*I *1631:S I *D sky130_fd_sc_hd__mux2_1
*I *1607:S I *D sky130_fd_sc_hd__mux2_1
*I *1616:S I *D sky130_fd_sc_hd__mux2_1
*I *1608:S I *D sky130_fd_sc_hd__mux2_1
*I *1625:S I *D sky130_fd_sc_hd__mux2_1
*I *1617:S I *D sky130_fd_sc_hd__mux2_1
*I *1620:S I *D sky130_fd_sc_hd__mux2_1
*I *1623:S I *D sky130_fd_sc_hd__mux2_1
*I *1619:S I *D sky130_fd_sc_hd__mux2_1
*I *1641:S I *D sky130_fd_sc_hd__mux2_1
*I *1640:S I *D sky130_fd_sc_hd__mux2_1
*I *1642:S I *D sky130_fd_sc_hd__mux2_1
*I *1612:S I *D sky130_fd_sc_hd__mux2_1
*I *1636:S I *D sky130_fd_sc_hd__mux2_1
*I *1615:S I *D sky130_fd_sc_hd__mux2_1
*I *1611:S I *D sky130_fd_sc_hd__mux2_1
*I *1627:S I *D sky130_fd_sc_hd__mux2_1
*I *1610:S I *D sky130_fd_sc_hd__mux2_1
*I *1626:S I *D sky130_fd_sc_hd__mux2_1
*I *1622:S I *D sky130_fd_sc_hd__mux2_1
*I *1634:S I *D sky130_fd_sc_hd__mux2_1
*I *1613:S I *D sky130_fd_sc_hd__mux2_1
*I *1624:S I *D sky130_fd_sc_hd__mux2_1
*I *1628:S I *D sky130_fd_sc_hd__mux2_1
*I *1633:S I *D sky130_fd_sc_hd__mux2_1
*I *1609:S I *D sky130_fd_sc_hd__mux2_1
*I *1638:S I *D sky130_fd_sc_hd__mux2_1
*I *1618:S I *D sky130_fd_sc_hd__mux2_1
*I *1629:S I *D sky130_fd_sc_hd__mux2_1
*I *1549:A I *D sky130_fd_sc_hd__clkinv_1
*I *1621:S I *D sky130_fd_sc_hd__mux2_1
*I *1637:S I *D sky130_fd_sc_hd__mux2_1
*I *1635:S I *D sky130_fd_sc_hd__mux2_1
*I *1639:S I *D sky130_fd_sc_hd__mux2_1
*I *1614:S I *D sky130_fd_sc_hd__mux2_1
*I *1632:S I *D sky130_fd_sc_hd__mux2_1
*I *1604:A I *D sky130_fd_sc_hd__nand2_1
*I *1548:X O *D sky130_fd_sc_hd__or4_1
*CAP
1 *1630:S 0.000124695
2 *1631:S 0
3 *1607:S 0
4 *1616:S 2.23854e-05
5 *1608:S 0
6 *1625:S 0
7 *1617:S 0
8 *1620:S 0
9 *1623:S 5.06938e-05
10 *1619:S 0
11 *1641:S 1.91209e-05
12 *1640:S 1.85427e-05
13 *1642:S 0.000100691
14 *1612:S 0
15 *1636:S 0.000355958
16 *1615:S 0.000141425
17 *1611:S 0
18 *1627:S 0
19 *1610:S 2.79726e-05
20 *1626:S 0
21 *1622:S 0
22 *1634:S 0.000777886
23 *1613:S 0
24 *1624:S 2.23854e-05
25 *1628:S 4.84835e-05
26 *1633:S 6.35288e-05
27 *1609:S 0
28 *1638:S 4.11078e-05
29 *1618:S 0
30 *1629:S 0
31 *1549:A 0.000193802
32 *1621:S 9.19699e-05
33 *1637:S 5.41368e-05
34 *1635:S 0.000166859
35 *1639:S 0.000406868
36 *1614:S 0
37 *1632:S 8.07849e-05
38 *1604:A 0.000203822
39 *1548:X 2.80576e-05
40 *580:446 0.000138368
41 *580:373 0.000237131
42 *580:347 0.000553354
43 *580:341 0.000379313
44 *580:339 0.00056188
45 *580:320 0.000620164
46 *580:318 0.000268647
47 *580:307 0.000487199
48 *580:297 0.000473449
49 *580:289 0.000366416
50 *580:281 0.000240258
51 *580:279 0.000110825
52 *580:236 0.000957123
53 *580:198 0.000216488
54 *580:192 0.000256836
55 *580:183 0.000529611
56 *580:147 0.00033957
57 *580:145 0.000191823
58 *580:143 0.000207882
59 *580:141 0.000554886
60 *580:139 0.000151446
61 *580:137 0.000311128
62 *580:135 7.03878e-05
63 *580:133 0.000463918
64 *580:109 0.000180338
65 *580:105 0.000646961
66 *580:103 0.000492722
67 *580:101 0.000606306
68 *580:95 0.000541878
69 *580:80 0.000504888
70 *580:78 0.000329751
71 *580:74 0.000369646
72 *580:64 0.000392516
73 *580:45 0.000744661
74 *580:36 0.00031263
75 *580:25 0.000457893
76 *580:8 0.000426739
77 *1549:A *1629:A1 0.00010096
78 *1604:A *1544:A 1.92905e-05
79 *1604:A *1548:B 0.000197842
80 *1604:A *1550:C_N 0.000127678
81 *1604:A *1555:B 5.33005e-05
82 *1604:A *1566:B 0.000314622
83 *1604:A *1604:B 9.58015e-05
84 *1604:A *628:34 1.39726e-05
85 *1610:S *1579:A1 9.41642e-05
86 *1615:S *586:65 2.60064e-05
87 *1615:S *632:10 0.000132297
88 *1621:S *587:8 0
89 *1621:S *625:43 0
90 *1623:S *1584:C1 0.000181796
91 *1623:S *1623:A1 1.21258e-05
92 *1628:S *622:14 7.04329e-05
93 *1632:S *1563:B 9.60939e-05
94 *1632:S *1567:B1 6.42095e-05
95 *1634:S *1591:A2 5.59013e-05
96 *1634:S *1600:A3 4.038e-06
97 *1634:S *1622:A1 8.25644e-05
98 *1634:S *1634:A1 8.51605e-05
99 *1634:S *626:58 0.000741509
100 *1634:S *634:10 1.92905e-05
101 *1636:S *1601:A1 9.60939e-05
102 *1636:S *1636:A1 0.000146591
103 *1636:S *1640:A1 2.72545e-05
104 *1636:S *664:8 1.21258e-05
105 *1637:S *1637:A1 0
106 *1637:S *625:55 6.05161e-06
107 *1638:S *1629:A1 0.000182792
108 *1639:S *629:8 1.92905e-05
109 *1639:S *645:10 0
110 *1642:S *1640:A1 2.14757e-05
111 *1642:S *1642:A1 0.000102765
112 *580:25 *1548:B 0.000117189
113 *580:25 *1562:A 0.000225314
114 *580:25 *1566:B 0.000202842
115 *580:36 *1562:A 0.000167012
116 *580:36 *658:14 3.23658e-05
117 *580:45 *1562:A 5.465e-05
118 *580:45 *658:14 0.000126744
119 *580:64 *1562:A 0.000314867
120 *580:64 *1562:B 0.000239845
121 *580:64 *1631:A1 4.47843e-05
122 *580:74 *629:8 0
123 *580:74 *645:10 0
124 *580:78 *1607:A1 9.60939e-05
125 *580:78 *629:8 0
126 *580:95 *1570:A3 9.25014e-06
127 *580:95 *1608:A1 0.000125461
128 *580:101 *1568:B1 7.21864e-05
129 *580:101 *586:32 0.000136951
130 *580:103 *1583:B1 4.11218e-05
131 *580:103 *1627:A1 6.8646e-06
132 *580:103 *626:90 5.42964e-05
133 *580:105 *625:128 0
134 *580:105 *625:139 0
135 *580:105 *626:82 0
136 *580:109 *625:128 0
137 *580:133 *1576:A 0.000195196
138 *580:133 *1577:C 4.27338e-05
139 *580:133 *1580:A2 5.20359e-06
140 *580:133 *1580:A3 7.84241e-05
141 *580:133 *586:86 1.95646e-05
142 *580:133 *587:8 0.000165621
143 *580:133 *587:12 5.63043e-05
144 *580:133 *602:30 0.000137983
145 *580:133 *626:58 2.32625e-05
146 *580:135 *1579:A1 0.000169359
147 *580:135 *1626:A1 9.71197e-05
148 *580:137 *1626:A1 5.33005e-05
149 *580:139 *1579:B2 0.000197603
150 *580:139 *1613:A1 5.52238e-05
151 *580:139 *1626:A1 5.33005e-05
152 *580:139 *586:86 0
153 *580:141 *1579:B2 4.43256e-05
154 *580:141 *1613:A1 5.52302e-05
155 *580:143 *1579:B2 0.000167998
156 *580:143 *1591:B2 0
157 *580:145 *1579:B2 1.98839e-05
158 *580:145 *1591:B2 0
159 *580:145 *1629:A1 5.52238e-05
160 *580:145 *643:8 0
161 *580:147 *1629:A1 0.000398822
162 *580:147 *643:8 0
163 *580:183 *1575:A1 0
164 *580:183 *1588:B 0.000245079
165 *580:183 *581:87 0.000130583
166 *580:183 *581:97 0.000213802
167 *580:183 *586:86 0
168 *580:192 *1571:A 6.60437e-05
169 *580:192 *1575:A2 3.97677e-05
170 *580:192 *637:33 2.441e-05
171 *580:192 *651:14 0.000228558
172 *580:198 *1575:A2 4.87854e-05
173 *580:198 *625:82 4.46186e-06
174 *580:236 *1591:A2 5.7616e-05
175 *580:279 *637:33 0.000125547
176 *580:281 *637:33 0.000382538
177 *580:289 *1620:A1 0.0002042
178 *580:289 *637:33 9.66517e-05
179 *580:297 *1564:B2 0.000178847
180 *580:297 *1564:C1 9.46929e-05
181 *580:297 *1589:C1 6.05161e-06
182 *580:297 *1623:A1 8.13599e-05
183 *580:297 *609:28 1.92756e-05
184 *580:307 *1584:A1 0
185 *580:307 *1584:B2 2.14658e-05
186 *580:307 *1584:C1 5.52238e-05
187 *580:307 *1611:A1 5.52238e-05
188 *580:307 *655:12 2.89016e-05
189 *580:318 *1584:A1 3.99614e-06
190 *580:318 *1584:B2 0.000645043
191 *580:318 *1611:A1 5.16736e-05
192 *580:339 *1586:A 2.97829e-05
193 *580:339 *1586:B 0.000307349
194 *580:339 *632:10 4.80729e-05
195 *580:341 *1641:A1 5.33005e-05
196 *580:347 *1642:A1 0
197 *580:373 *1641:A1 0.000108594
198 *1123:A *580:103 0
199 *1547:A *580:74 2.59355e-05
200 *1547:A *580:78 2.77173e-05
201 *1578:A *1634:S 0
202 *1608:A0 *580:101 0.000251941
203 *1613:A0 *1610:S 8.17274e-05
204 *1613:A0 *580:135 0.000254042
205 *1613:A0 *580:137 4.08637e-05
206 *1613:A0 *580:139 0.000137983
207 *1615:A0 *1615:S 0.000235435
208 *1616:A0 *1635:S 2.95726e-05
209 *1617:A0 *580:289 0.000116389
210 *1621:A0 *1621:S 0.000131439
211 *1621:A0 *1637:S 0.000136958
212 *1621:A0 *580:103 8.63477e-05
213 *1621:A0 *580:105 9.11365e-06
214 *1623:A0 *1623:S 8.66063e-05
215 *1623:A0 *580:297 1.36251e-05
216 *1623:A0 *580:307 9.71197e-05
217 *1625:A0 *580:101 0.00019771
218 *1625:A0 *580:103 2.61337e-05
219 *1629:A0 *1549:A 1.74352e-05
220 *1630:A0 *1630:S 0.000161947
221 *1630:A0 *580:74 4.58976e-05
222 *1630:A0 *580:446 2.28598e-05
223 *1631:A0 *580:74 0.000227532
224 *1635:A0 *1635:S 4.0342e-06
225 *1636:A0 *1636:S 0.000356015
226 *1636:A0 *580:347 0.000422735
227 *1640:A0 *1640:S 5.71472e-05
228 *1640:A0 *1642:S 3.03304e-05
229 *1640:A0 *580:373 7.48301e-06
230 *1641:A0 *580:339 0.000132977
231 *1641:A0 *580:341 4.43256e-05
232 *1642:A0 *1642:S 3.24668e-05
233 *1642:A0 *580:373 0.000127353
234 *1656:CLK *1635:S 0
235 *1656:CLK *580:80 0
236 *1656:D *580:78 3.68039e-06
237 *1657:D *580:101 2.59355e-05
238 *1657:RESET_B *1639:S 0.000137983
239 *1658:D *580:192 8.43535e-06
240 *1659:CLK *1638:S 6.8023e-05
241 *1659:CLK *580:183 0
242 *1660:CLK *1615:S 0.000199331
243 *1660:D *580:318 7.84241e-05
244 *1660:RESET_B *580:318 0
245 *1661:CLK *1636:S 2.31791e-05
246 *1661:D *1636:S 2.90043e-05
247 *1661:RESET_B *580:339 0
248 *1663:D *580:45 3.42164e-05
249 *1663:RESET_B *1639:S 8.79458e-05
250 *1665:D *1635:S 0.000439692
251 *1665:RESET_B *580:78 0
252 *1665:RESET_B *580:80 0
253 *1668:CLK *1636:S 0.000312215
254 *1670:D *1637:S 0.000136951
255 *1670:D *580:133 0.000479652
256 *1672:D *580:297 8.48705e-05
257 *1675:D *580:139 6.42095e-05
258 *1675:D *580:141 6.87574e-05
259 *1675:D *580:143 2.89114e-05
260 *1678:D *1549:A 8.07313e-05
261 *1678:RESET_B *1549:A 0
262 *1678:RESET_B *580:147 0
263 *1679:D *1630:S 5.52238e-05
264 *1679:D *580:64 0
265 *1679:RESET_B *1639:S 0
266 *1680:D *1630:S 0.000117621
267 *1680:D *580:74 0.000148105
268 *1680:D *580:446 2.89114e-05
269 *1680:RESET_B *1639:S 0.000103087
270 *1681:RESET_B *580:25 2.14378e-05
271 *1683:D *1634:S 0.0004256
272 *1684:CLK *580:289 2.98435e-05
273 *1684:CLK *580:297 0.000174542
274 *1684:RESET_B *1623:S 0
275 *1684:RESET_B *580:307 0
276 *1688:D *1639:S 3.18676e-05
277 *1688:RESET_B *580:64 9.11365e-06
278 *1689:D *1642:S 8.07313e-05
279 *1689:D *580:373 0
280 *1690:D *580:347 0
281 *1690:D *580:373 5.52302e-05
282 *1:21 *580:74 0.000222885
283 *2:22 *580:318 0
284 *2:81 *580:236 0.000201636
285 *2:83 *580:236 0.000150144
286 *2:87 *580:236 9.48162e-05
287 *2:702 *1636:S 0.000226021
288 *2:716 *1636:S 0.000128868
289 *8:13 *580:64 0
290 *8:13 *580:74 0.000197977
291 *9:11 *1615:S 1.50563e-05
292 *9:11 *580:339 3.28534e-05
293 *11:22 *580:289 0.000273032
294 *12:17 *1635:S 0.000210742
295 *12:17 *580:78 0.000111501
296 *12:17 *580:80 0.000113005
297 *14:5 *1628:S 3.69483e-05
298 *14:5 *580:198 7.07908e-05
299 *16:15 *580:289 1.55475e-05
300 *17:11 *580:103 0
301 *18:13 *580:236 0.00044852
302 *20:13 *580:192 9.60939e-05
303 *20:13 *580:198 9.41642e-05
304 *22:5 *580:307 7.12322e-05
305 *24:9 *580:101 0.000184318
306 *24:9 *580:103 0.000277984
307 *29:13 *580:95 0
308 *31:7 *580:95 0.000270921
309 *34:9 *580:192 5.17614e-05
310 *36:5 *1628:S 0.000176971
311 *36:5 *580:183 0
312 *36:5 *580:198 0.000196262
313 *37:9 *580:307 0.000178656
314 *39:17 *1615:S 3.34366e-05
315 *39:17 *580:318 2.59355e-05
316 *39:17 *580:339 0.000247771
317 *40:11 *580:297 5.98596e-05
318 *44:23 *1639:S 0.000464424
319 *50:11 *1635:S 0
320 *50:11 *580:339 0.000103974
321 *50:19 *1630:S 0
322 *68:250 *580:103 0
323 *68:250 *580:105 0
324 *80:62 *1636:S 0.000177948
325 *80:71 *1636:S 0.000196728
326 *80:93 *1633:S 0.00022266
327 *82:48 *1634:S 0
328 *83:20 *580:95 2.49484e-05
329 *83:31 *580:95 0.000112726
330 *84:23 *580:8 1.58163e-05
331 *84:57 *1639:S 0
332 *84:57 *580:45 2.40885e-05
333 *84:57 *580:64 3.53645e-05
334 *93:110 *1638:S 4.1331e-06
335 *104:10 *1632:S 4.00276e-06
336 *104:10 *580:25 9.10431e-06
337 *104:10 *580:36 0.000131297
338 *104:18 *580:25 0.000120073
339 *105:186 *1632:S 0.000137983
340 *105:194 *580:279 0.000137983
341 *105:194 *580:281 0.000394975
342 *105:194 *580:289 0.000181803
343 *105:200 *1633:S 0.000114577
344 *106:113 *580:133 0.000128146
345 *108:10 *580:105 0.000366141
346 *108:10 *580:109 5.41794e-05
347 *108:180 *580:105 0.000128868
348 *109:107 *580:289 5.58941e-05
349 *112:10 *580:8 1.58163e-05
350 *271:28 *1634:S 0.000267814
351 *271:28 *580:236 4.56437e-05
352 *492:28 *1634:S 0.000288121
353 *577:18 *1604:A 0.000230448
354 *579:12 *580:36 0
355 *579:12 *580:45 0
*RES
1 *1548:X *580:8 14.5426 
2 *580:8 *1604:A 24.1961 
3 *580:8 *580:25 9.48025 
4 *580:25 *1632:S 16.8198 
5 *580:25 *580:36 6.90598 
6 *580:36 *1614:S 13.8 
7 *580:36 *580:45 4.38121 
8 *580:45 *1639:S 28.8496 
9 *580:45 *580:64 13.9307 
10 *580:64 *580:74 17.8614 
11 *580:74 *580:78 5.89112 
12 *580:78 *580:80 3.01982 
13 *580:80 *1635:S 16.899 
14 *580:80 *580:95 18.4307 
15 *580:95 *580:101 16.1337 
16 *580:101 *580:103 10.6931 
17 *580:103 *580:105 9.00995 
18 *580:105 *580:109 5.51486 
19 *580:109 *1637:S 11.7505 
20 *580:109 *1621:S 12.3198 
21 *580:105 *580:133 30.1833 
22 *580:133 *580:135 3.58913 
23 *580:135 *580:137 0.742578 
24 *580:137 *580:139 5.29706 
25 *580:139 *580:141 1.8812 
26 *580:141 *580:143 4.15844 
27 *580:143 *580:145 1.31189 
28 *580:145 *580:147 5.29706 
29 *580:147 *1549:A 15.7604 
30 *580:147 *1629:S 9.3 
31 *580:145 *1618:S 9.3 
32 *580:143 *1638:S 21.4188 
33 *580:141 *580:183 22.6387 
34 *580:183 *1609:S 9.3 
35 *580:183 *580:192 5.89112 
36 *580:192 *580:198 9.35151 
37 *580:198 *1633:S 16.8198 
38 *580:198 *1628:S 16.9188 
39 *580:192 *1624:S 9.89406 
40 *580:139 *1613:S 9.3 
41 *580:137 *580:236 15.2674 
42 *580:236 *1634:S 45.4091 
43 *580:236 *1622:S 13.8 
44 *580:135 *1626:S 9.3 
45 *580:133 *1610:S 10.6119 
46 *580:103 *1627:S 13.8 
47 *580:101 *580:279 6.3812 
48 *580:279 *580:281 5.29706 
49 *580:281 *580:289 18.3565 
50 *580:289 *580:297 18.3565 
51 *580:297 *580:307 17.0198 
52 *580:307 *1611:S 9.3 
53 *580:307 *580:318 9.90104 
54 *580:318 *580:320 4.5 
55 *580:320 *1615:S 21.6218 
56 *580:320 *580:339 19.8714 
57 *580:339 *580:341 1.8812 
58 *580:341 *580:347 16.3268 
59 *580:347 *1636:S 34.6615 
60 *580:347 *1612:S 9.3 
61 *580:341 *580:373 5.91587 
62 *580:373 *1642:S 14.7951 
63 *580:373 *1640:S 10.6366 
64 *580:339 *1641:S 9.89406 
65 *580:318 *1619:S 9.3 
66 *580:297 *1623:S 11.7505 
67 *580:289 *1620:S 9.3 
68 *580:281 *1617:S 9.3 
69 *580:279 *1625:S 9.3 
70 *580:95 *1608:S 9.3 
71 *580:78 *1616:S 9.89406 
72 *580:74 *1607:S 9.3 
73 *580:64 *580:446 0.742578 
74 *580:446 *1631:S 9.3 
75 *580:446 *1630:S 14.5971 
*END

*D_NET *581 0.0215816
*CONN
*I *1563:B I *D sky130_fd_sc_hd__nor2_1
*I *1569:B I *D sky130_fd_sc_hd__nor2_1
*I *1570:A1 I *D sky130_fd_sc_hd__a31oi_1
*I *1582:B I *D sky130_fd_sc_hd__nor2_1
*I *1588:B I *D sky130_fd_sc_hd__nor2_1
*I *1573:B I *D sky130_fd_sc_hd__nor2_1
*I *1578:B I *D sky130_fd_sc_hd__nor2_1
*I *1600:A1 I *D sky130_fd_sc_hd__a31oi_1
*I *1599:B I *D sky130_fd_sc_hd__nor2_1
*I *1594:B I *D sky130_fd_sc_hd__nor2_1
*I *1595:A1 I *D sky130_fd_sc_hd__a31oi_1
*I *1553:B I *D sky130_fd_sc_hd__nor2_1
*I *1602:B1 I *D sky130_fd_sc_hd__a32o_1
*I *1559:B1 I *D sky130_fd_sc_hd__o21ai_0
*I *1550:Y O *D sky130_fd_sc_hd__nor3b_1
*CAP
1 *1563:B 0.000198104
2 *1569:B 0
3 *1570:A1 5.81073e-05
4 *1582:B 0
5 *1588:B 0.000634967
6 *1573:B 0
7 *1578:B 8.3345e-05
8 *1600:A1 0
9 *1599:B 0
10 *1594:B 0.000285774
11 *1595:A1 0.000180956
12 *1553:B 0.000395539
13 *1602:B1 4.30414e-05
14 *1559:B1 0
15 *1550:Y 0.000264899
16 *581:198 0.000302455
17 *581:187 0.000207557
18 *581:144 8.3345e-05
19 *581:122 0.000457124
20 *581:116 0.000505414
21 *581:97 0.000891442
22 *581:87 0.000422517
23 *581:83 0.00133107
24 *581:77 0.0013402
25 *581:65 0.000971537
26 *581:29 0.000650429
27 *581:20 0.00043876
28 *581:16 0.000728067
29 *1553:B *1553:A 0.000144773
30 *1553:B *1555:A 2.05418e-05
31 *1553:B *1602:A1 9.87421e-06
32 *1553:B *1602:B2 8.11174e-05
33 *1553:B *583:18 0.000107388
34 *1553:B *628:12 7.13232e-05
35 *1563:B *1567:B1 0.000436314
36 *1563:B *1596:B1 5.18493e-05
37 *1570:A1 *1567:B1 0
38 *1570:A1 *1570:B1 0
39 *1570:A1 *625:183 0.000137561
40 *1578:B *1600:A2 0.000199058
41 *1578:B *1600:B1 5.33005e-05
42 *1578:B *616:12 0.000358977
43 *1588:B *1575:A1 6.85906e-05
44 *1588:B *1589:C1 0.000129387
45 *1588:B *1590:A1 5.32634e-05
46 *1588:B *1590:B1 0.000129387
47 *1588:B *1601:A0 0.00020546
48 *1588:B *586:65 0
49 *1588:B *637:10 0
50 *1588:B *651:14 0
51 *1594:B *1598:A2 0
52 *1595:A1 *1591:A1 4.00276e-06
53 *1595:A1 *1591:B2 4.57445e-05
54 *1602:B1 *1602:A1 2.24101e-05
55 *1602:B1 *1602:A2 4.37165e-06
56 *581:16 *1551:A 5.52238e-05
57 *581:16 *1602:B2 4.19535e-05
58 *581:16 *1603:A2 0.000464642
59 *581:20 *1559:A1 4.98506e-05
60 *581:20 *1603:A2 2.04825e-05
61 *581:20 *1603:C1 1.18064e-05
62 *581:20 *1606:B1 7.79781e-06
63 *581:20 *583:18 7.30641e-05
64 *581:20 *627:26 0.00017309
65 *581:29 *1552:A1 5.74499e-06
66 *581:29 *1602:A1 1.89115e-05
67 *581:29 *1606:B1 0
68 *581:29 *583:18 5.93864e-05
69 *581:29 *626:14 1.39841e-05
70 *581:29 *626:24 3.67142e-05
71 *581:29 *627:26 0
72 *581:29 *627:62 1.21258e-05
73 *581:65 *1585:A1 0.000208744
74 *581:77 *1579:C1 1.41029e-05
75 *581:77 *1585:A1 0.00050906
76 *581:77 *582:14 0.000658501
77 *581:77 *582:16 0.000807617
78 *581:83 *1574:B2 0
79 *581:83 *1575:A3 0
80 *581:83 *1575:B1 1.07719e-05
81 *581:87 *1575:A1 5.11571e-05
82 *581:97 *1575:A3 0.000139907
83 *581:97 *1575:B1 3.93247e-05
84 *581:97 *1591:A1 0.000131297
85 *581:97 *1591:B2 0
86 *581:97 *1613:A1 0.000186278
87 *581:97 *586:86 0.000134708
88 *581:97 *587:32 0
89 *581:116 *1580:B1 6.91215e-06
90 *581:116 *1591:A1 1.05947e-05
91 *581:116 *1591:A2 5.75147e-05
92 *581:116 *587:32 0
93 *581:116 *616:12 1.40034e-05
94 *581:116 *657:6 3.44213e-05
95 *581:122 *1580:B1 0
96 *581:122 *1598:A2 0
97 *581:122 *1600:A3 1.94945e-05
98 *581:122 *1600:B1 0.000124362
99 *581:187 *586:22 2.03618e-05
100 *581:198 *1570:B1 0.000133005
101 *581:198 *1596:B1 9.54798e-06
102 *581:198 *586:22 1.75001e-05
103 *581:198 *587:94 2.06178e-05
104 *1123:A *581:16 0.000120483
105 *1573:A *581:83 2.40557e-05
106 *1573:A *581:97 5.52238e-05
107 *1582:A *581:83 1.97695e-05
108 *1588:A *1588:B 1.19011e-05
109 *1594:A *1594:B 5.86603e-05
110 *1602:A3 *581:29 8.55871e-05
111 *1605:A *581:20 0.000173804
112 *1632:S *1563:B 9.60939e-05
113 *1634:A0 *581:20 0
114 *1634:A0 *581:65 0.000118249
115 *1634:A0 *581:187 4.06087e-07
116 *1646:D *1570:A1 1.58163e-05
117 *1647:RESET_B *581:83 9.23695e-05
118 *1650:D *1588:B 0
119 *1652:D *1594:B 0.000131491
120 *1652:D *581:122 4.81132e-05
121 *1653:CLK *581:20 0
122 *1653:D *581:29 9.41642e-05
123 *1659:CLK *581:97 0
124 *1660:CLK *1588:B 8.23597e-06
125 *1662:D *581:97 0
126 *1662:RESET_B *581:116 1.20135e-05
127 *1666:CLK *581:83 0
128 *1675:D *581:97 5.2081e-05
129 *1681:CLK *581:65 2.2355e-05
130 *1681:CLK *581:187 2.78481e-05
131 *1681:CLK *581:198 3.47641e-06
132 *1681:D *581:198 0
133 *2:242 *1553:B 6.27242e-05
134 *2:244 *1553:B 5.80706e-06
135 *2:269 *1553:B 0.000190241
136 *9:11 *1588:B 0.000124749
137 *20:13 *1588:B 4.51691e-05
138 *29:13 *581:198 0
139 *30:13 *1588:B 0
140 *81:84 *1594:B 1.76135e-05
141 *83:12 *581:65 6.0425e-05
142 *83:55 *581:77 0.000173365
143 *83:55 *581:83 1.74352e-05
144 *83:122 *581:20 0
145 *83:122 *581:65 0
146 *84:34 *581:198 0
147 *93:68 *1595:A1 0.000129868
148 *93:110 *1595:A1 1.40415e-05
149 *105:12 *581:16 4.04359e-05
150 *105:186 *1563:B 0.000179483
151 *106:6 *581:83 4.25079e-05
152 *106:26 *581:83 0.00010982
153 *106:113 *581:83 4.22839e-05
154 *106:113 *581:122 0
155 *106:115 *581:116 0.000117903
156 *106:115 *581:122 5.55016e-05
157 *108:194 *581:83 0
158 *109:14 *1588:B 2.24813e-05
159 *109:34 *1588:B 5.96243e-05
160 *109:107 *581:77 0.000140442
161 *111:164 *1594:B 0
162 *113:6 *1553:B 5.33433e-05
163 *271:16 *1595:A1 0.000113306
164 *271:16 *581:116 0.000125412
165 *492:28 *1594:B 0.00016345
166 *493:38 *1594:B 0.000312215
167 *493:40 *1594:B 3.30309e-05
168 *577:18 *581:16 5.33005e-05
169 *580:183 *1588:B 0.000245079
170 *580:183 *581:87 0.000130583
171 *580:183 *581:97 0.000213802
*RES
1 *1550:Y *581:16 23.0831 
2 *581:16 *581:20 12.458 
3 *581:20 *1559:B1 9.3 
4 *581:20 *581:29 6.62132 
5 *581:29 *1602:B1 10.6119 
6 *581:29 *1553:B 31.7778 
7 *581:16 *581:65 8.66341 
8 *581:65 *581:77 17.1173 
9 *581:77 *581:83 21.6288 
10 *581:83 *581:87 6.77724 
11 *581:87 *581:97 25.9555 
12 *581:97 *1595:A1 24.7357 
13 *581:97 *581:116 14.9208 
14 *581:116 *581:122 5.02478 
15 *581:122 *1594:B 24.6416 
16 *581:122 *1599:B 13.8 
17 *581:116 *581:144 4.5 
18 *581:144 *1600:A1 9.3 
19 *581:144 *1578:B 14.6218 
20 *581:87 *1573:B 9.3 
21 *581:83 *1588:B 36.9017 
22 *581:77 *1582:B 9.3 
23 *581:65 *581:187 1.22525 
24 *581:187 *1570:A1 15.6812 
25 *581:187 *581:198 3.53962 
26 *581:198 *1569:B 13.8 
27 *581:198 *1563:B 21.5476 
*END

*D_NET *582 0.0115
*CONN
*I *1583:B1 I *D sky130_fd_sc_hd__a21oi_1
*I *1564:C1 I *D sky130_fd_sc_hd__a221oi_1
*I *1589:C1 I *D sky130_fd_sc_hd__a221oi_1
*I *1579:C1 I *D sky130_fd_sc_hd__a221oi_1
*I *1574:C1 I *D sky130_fd_sc_hd__a221oi_1
*I *1551:X O *D sky130_fd_sc_hd__or3b_1
*CAP
1 *1583:B1 6.10762e-05
2 *1564:C1 0.000179409
3 *1589:C1 0.000519848
4 *1579:C1 0.000204953
5 *1574:C1 0.000239572
6 *1551:X 0.000849582
7 *582:44 0.000868027
8 *582:31 0.000373723
9 *582:16 0.000678546
10 *582:14 0.00134963
11 *1564:C1 *1564:B2 4.64508e-05
12 *1564:C1 *1584:B1 2.25101e-05
13 *1564:C1 *587:63 0
14 *1574:C1 *622:14 0
15 *1579:C1 *587:39 0.000749962
16 *1579:C1 *588:37 1.02504e-05
17 *1583:B1 *587:73 9.60939e-05
18 *1583:B1 *626:90 2.01525e-05
19 *1583:B1 *637:33 0
20 *1583:B1 *638:6 2.59355e-05
21 *1589:C1 *1564:B2 0.000109604
22 *1589:C1 *1589:A1 5.38072e-05
23 *1589:C1 *1589:A2 0
24 *1589:C1 *1589:B1 0
25 *1589:C1 *1615:A1 4.91917e-05
26 *1589:C1 *586:65 0
27 *582:14 *1585:A1 2.24813e-05
28 *582:14 *1604:B 0.000136958
29 *582:14 *587:94 8.5978e-05
30 *582:14 *609:28 5.917e-05
31 *582:14 *618:14 0.00061171
32 *582:14 *622:14 0
33 *582:14 *626:202 4.70048e-05
34 *582:14 *627:14 2.31123e-05
35 *582:14 *627:62 1.81805e-05
36 *582:16 *622:14 0
37 *582:44 *587:39 3.42136e-05
38 *582:44 *587:50 0.000364103
39 *1123:A *582:14 0
40 *1588:B *1589:C1 0.000129387
41 *1655:D *582:14 9.25014e-06
42 *1669:CLK *1589:C1 5.39629e-06
43 *1669:D *1589:C1 0.000287885
44 *1672:D *1589:C1 0
45 *1684:CLK *582:44 0.000524612
46 *22:5 *1574:C1 0
47 *37:9 *1574:C1 4.5539e-05
48 *40:11 *582:44 6.23386e-05
49 *80:119 *1589:C1 1.92905e-05
50 *80:134 *1589:C1 7.84041e-05
51 *83:12 *582:14 0
52 *83:55 *1579:C1 0.00016705
53 *83:55 *582:44 4.32309e-05
54 *83:122 *582:14 0
55 *84:34 *582:14 0.000311861
56 *109:107 *1579:C1 0.000207739
57 *112:93 *582:14 7.47077e-05
58 *580:103 *1583:B1 4.11218e-05
59 *580:297 *1564:C1 9.46929e-05
60 *580:297 *1589:C1 6.05161e-06
61 *581:77 *1579:C1 1.41029e-05
62 *581:77 *582:14 0.000658501
63 *581:77 *582:16 0.000807617
*RES
1 *1551:X *582:14 31.9328 
2 *582:14 *582:16 1.54502 
3 *582:16 *1574:C1 18.5374 
4 *582:16 *582:31 3.41 
5 *582:31 *1579:C1 26.8075 
6 *582:31 *582:44 14.5619 
7 *582:44 *1589:C1 35.1813 
8 *582:44 *1564:C1 14.0525 
9 *582:14 *1583:B1 19.3263 
*END

*D_NET *583 0.00244365
*CONN
*I *1554:A2 I *D sky130_fd_sc_hd__a21oi_1
*I *1560:A2 I *D sky130_fd_sc_hd__o21ai_0
*I *1552:Y O *D sky130_fd_sc_hd__a21oi_1
*CAP
1 *1554:A2 1.16062e-05
2 *1560:A2 0.000123406
3 *1552:Y 0.000456637
4 *583:18 0.000591649
5 *1554:A2 *1554:B1 5.52302e-05
6 *1560:A2 *1554:B1 7.96557e-05
7 *1560:A2 *1560:B1 1.41706e-05
8 *1560:A2 *1600:A2 3.22772e-05
9 *1560:A2 *626:10 1.30731e-05
10 *583:18 *1555:A 0.000102911
11 *583:18 *1559:A1 0
12 *583:18 *1560:B1 2.39979e-05
13 *583:18 *1602:B2 5.52302e-05
14 *583:18 *1606:B1 5.39629e-06
15 *583:18 *625:35 4.00349e-05
16 *583:18 *626:202 3.49512e-05
17 *1553:B *583:18 0.000107388
18 *1560:A1 *1554:A2 5.52302e-05
19 *1560:A1 *1560:A2 5.23057e-05
20 *1560:A1 *583:18 8.03794e-05
21 *1602:A3 *583:18 2.22043e-05
22 *1634:A0 *1560:A2 0
23 *1634:A0 *583:18 0
24 *1643:D *1560:A2 5.52238e-05
25 *1644:D *1560:A2 5.52238e-05
26 *1653:CLK *1560:A2 3.47641e-06
27 *1653:CLK *583:18 0.000108692
28 *1653:D *583:18 2.79421e-05
29 *1655:D *583:18 0
30 *112:20 *583:18 0.000102911
31 *581:20 *583:18 7.30641e-05
32 *581:29 *583:18 5.93864e-05
*RES
1 *1552:Y *583:18 38.0476 
2 *583:18 *1560:A2 18.4287 
3 *583:18 *1554:A2 14.5426 
*END

*D_NET *584 0.00172303
*CONN
*I *1554:B1 I *D sky130_fd_sc_hd__a21oi_1
*I *1553:Y O *D sky130_fd_sc_hd__nor2_1
*CAP
1 *1554:B1 0.000508034
2 *1553:Y 0.000508034
3 *1554:B1 *1553:A 0.000335555
4 *1554:B1 *1600:A2 0.000103279
5 *1554:B1 *625:10 3.14163e-05
6 *1554:B1 *626:14 0
7 *1554:B1 *627:62 0
8 *1554:A2 *1554:B1 5.52302e-05
9 *1560:A1 *1554:B1 7.25614e-05
10 *1560:A2 *1554:B1 7.96557e-05
11 *1602:A3 *1554:B1 2.92686e-05
12 *1643:RESET_B *1554:B1 0
13 *505:8 *1554:B1 0
*RES
1 *1553:Y *1554:B1 35.1595 
*END

*D_NET *585 0.00271261
*CONN
*I *1603:A2 I *D sky130_fd_sc_hd__o211ai_1
*I *1555:Y O *D sky130_fd_sc_hd__nand2_1
*CAP
1 *1603:A2 0.000755921
2 *1555:Y 0.000755921
3 *1603:A2 *1602:B2 0
4 *1123:A *1603:A2 5.98624e-05
5 *1602:A3 *1603:A2 0
6 *1603:A1 *1603:A2 0.000351156
7 *1603:B1 *1603:A2 0.00018372
8 *1605:C *1603:A2 0
9 *2:276 *1603:A2 2.06178e-05
10 *83:122 *1603:A2 4.19624e-06
11 *577:20 *1603:A2 9.60939e-05
12 *581:16 *1603:A2 0.000464642
13 *581:20 *1603:A2 2.04825e-05
*RES
1 *1555:Y *1603:A2 41.4601 
*END

*D_NET *586 0.0173412
*CONN
*I *1596:A2 I *D sky130_fd_sc_hd__a22oi_1
*I *1568:A2 I *D sky130_fd_sc_hd__a22oi_1
*I *1561:B I *D sky130_fd_sc_hd__nand2_1
*I *1584:A2 I *D sky130_fd_sc_hd__a221oi_1
*I *1576:B I *D sky130_fd_sc_hd__nand2_1
*I *1591:A2 I *D sky130_fd_sc_hd__a22oi_1
*I *1571:B I *D sky130_fd_sc_hd__nand2_1
*I *1586:B I *D sky130_fd_sc_hd__nand2_1
*I *1556:Y O *D sky130_fd_sc_hd__nor2_1
*CAP
1 *1596:A2 0.000104323
2 *1568:A2 2.32412e-05
3 *1561:B 2.23854e-05
4 *1584:A2 0
5 *1576:B 0
6 *1591:A2 0.000494498
7 *1571:B 5.27238e-05
8 *1586:B 0.000236242
9 *1556:Y 0.000416193
10 *586:132 0.000181855
11 *586:86 0.00137211
12 *586:65 0.00156723
13 *586:52 0.00141227
14 *586:42 0.00104822
15 *586:32 0.000779805
16 *586:22 0.000718812
17 *1561:B *1561:A 0
18 *1568:A2 *1568:B1 6.08277e-06
19 *1571:B *1571:A 5.71472e-05
20 *1571:B *1575:A1 2.27416e-05
21 *1586:B *1586:A 3.37082e-05
22 *1586:B *1619:A1 0
23 *1591:A2 *1580:B1 2.47093e-05
24 *1591:A2 *1595:B1 0.000213331
25 *1591:A2 *1598:B1 3.47969e-05
26 *1591:A2 *1600:A3 1.08359e-05
27 *1591:A2 *1622:A1 0.000136958
28 *1591:A2 *587:32 5.1588e-05
29 *1591:A2 *588:37 9.80954e-05
30 *1591:A2 *602:30 0.000128019
31 *1591:A2 *616:12 0.000445107
32 *1596:A2 *1596:A1 5.66981e-05
33 *1596:A2 *1596:B1 7.58422e-05
34 *1596:A2 *1596:B2 5.52238e-05
35 *1596:A2 *618:14 5.71697e-05
36 *1596:A2 *640:6 2.60993e-05
37 *586:22 *1556:B 3.45371e-05
38 *586:22 *1568:A1 5.66157e-05
39 *586:22 *1570:B1 0.000132297
40 *586:22 *1596:B1 0.000163517
41 *586:22 *1596:B2 0
42 *586:22 *587:94 1.90936e-05
43 *586:22 *625:143 3.63423e-05
44 *586:22 *625:170 1.55885e-05
45 *586:22 *625:183 0.000155269
46 *586:22 *626:82 3.47705e-05
47 *586:32 *1561:A 5.33005e-05
48 *586:32 *1568:B1 5.36e-05
49 *586:32 *1570:A3 9.41642e-05
50 *586:32 *1608:A1 5.70716e-05
51 *586:42 *1564:A1 0
52 *586:42 *1568:B1 0
53 *586:42 *1584:B1 0.0001399
54 *586:42 *1635:A1 0.000218697
55 *586:42 *625:170 0
56 *586:42 *649:10 0.000225282
57 *586:65 *1589:B1 0.000315037
58 *586:86 *1576:A 9.90367e-05
59 *586:86 *1580:A2 0.000184209
60 *586:86 *1580:A3 1.2086e-05
61 *586:86 *1613:A1 0.000202835
62 *586:86 *587:32 0.000165264
63 *586:86 *657:6 0
64 *586:132 *1608:A1 1.07719e-05
65 *586:132 *640:6 9.65505e-06
66 s_axi_bvalid *586:52 0.000202842
67 *1588:B *586:65 0
68 *1589:C1 *586:65 0
69 *1611:A0 *586:65 0.000155476
70 *1613:A0 *586:86 0
71 *1614:A0 *1568:A2 1.22159e-05
72 *1614:A0 *1596:A2 2.60539e-05
73 *1614:A0 *586:22 0.000103981
74 *1614:A0 *586:132 1.88761e-05
75 *1615:A0 *586:65 0.00032682
76 *1615:S *586:65 2.60064e-05
77 *1617:A0 *586:52 5.3898e-05
78 *1619:A0 *1586:B 0
79 *1622:A0 *1591:A2 0.000177815
80 *1634:A0 *586:22 0.000440737
81 *1634:S *1591:A2 5.59013e-05
82 *1646:D *586:22 1.98478e-05
83 *1648:CLK *1591:A2 3.06878e-06
84 *1657:D *1561:B 0
85 *1657:D *586:32 0.000131684
86 *1657:D *586:42 5.33005e-05
87 *1660:CLK *586:65 0
88 *1660:D *586:65 0.000133005
89 *1665:CLK *586:32 0
90 *1665:CLK *586:42 0
91 *1669:CLK *586:65 0.000198491
92 *1671:D *1591:A2 4.67392e-05
93 *1672:CLK *586:65 0.000120355
94 *1675:D *586:86 5.39629e-06
95 *1684:D *586:42 6.77937e-05
96 *2:75 *586:65 0
97 *2:75 *586:86 0
98 *2:79 *586:86 0
99 *2:81 *586:86 0
100 *11:22 *586:52 3.9883e-05
101 *12:17 *586:52 5.83233e-05
102 *16:15 *586:42 0.000417765
103 *17:11 *586:42 5.09485e-05
104 *18:11 *586:52 1.36635e-05
105 *18:13 *1591:A2 7.90803e-05
106 *29:13 *586:32 0.000152063
107 *31:7 *586:22 8.85664e-07
108 *34:9 *586:65 0.000194076
109 *39:17 *1586:B 0
110 *50:11 *1586:B 6.96405e-05
111 *50:11 *586:42 1.44094e-05
112 *50:11 *586:52 0.000325252
113 *83:16 *586:22 1.25404e-05
114 *83:20 *586:32 0.000150355
115 *84:47 *586:22 0
116 *106:94 *586:86 0.000177467
117 *106:113 *1591:A2 0
118 *580:101 *586:32 0.000136951
119 *580:133 *586:86 1.95646e-05
120 *580:139 *586:86 0
121 *580:183 *586:86 0
122 *580:236 *1591:A2 5.7616e-05
123 *580:339 *1586:B 0.000307349
124 *581:97 *586:86 0.000134708
125 *581:116 *1591:A2 5.75147e-05
126 *581:187 *586:22 2.03618e-05
127 *581:198 *586:22 1.75001e-05
*RES
1 *1556:Y *586:22 35.5526 
2 *586:22 *586:32 18.307 
3 *586:32 *586:42 26.9209 
4 *586:42 *586:52 25.9803 
5 *586:52 *1586:B 16.3297 
6 *586:52 *586:65 28.2377 
7 *586:65 *1571:B 15.2852 
8 *586:65 *586:86 32.1239 
9 *586:86 *1591:A2 47.0773 
10 *586:86 *1576:B 9.3 
11 *586:42 *1584:A2 9.3 
12 *586:32 *1561:B 9.89406 
13 *586:22 *586:132 1.8255 
14 *586:132 *1568:A2 10.1787 
15 *586:132 *1596:A2 14.3372 
*END

*D_NET *587 0.0147772
*CONN
*I *1559:A1 I *D sky130_fd_sc_hd__o21ai_0
*I *1579:A2 I *D sky130_fd_sc_hd__a221oi_1
*I *1564:A2 I *D sky130_fd_sc_hd__a221oi_1
*I *1596:B1 I *D sky130_fd_sc_hd__a22oi_1
*I *1567:A2 I *D sky130_fd_sc_hd__a21oi_1
*I *1583:A2 I *D sky130_fd_sc_hd__a21oi_1
*I *1589:A2 I *D sky130_fd_sc_hd__a221oi_1
*I *1574:A2 I *D sky130_fd_sc_hd__a221oi_1
*I *1591:B1 I *D sky130_fd_sc_hd__a22oi_1
*I *1557:X O *D sky130_fd_sc_hd__lpflow_isobufsrc_1
*CAP
1 *1559:A1 7.90831e-05
2 *1579:A2 3.00142e-05
3 *1564:A2 6.49647e-05
4 *1596:B1 0.000332891
5 *1567:A2 0
6 *1583:A2 1.00162e-05
7 *1589:A2 0.000310432
8 *1574:A2 0
9 *1591:B1 0
10 *1557:X 0
11 *587:94 0.000638924
12 *587:73 0.000662743
13 *587:63 0.00070635
14 *587:50 0.000740578
15 *587:39 0.000353136
16 *587:32 0.000732691
17 *587:12 0.00102866
18 *587:8 0.000562596
19 *587:4 0.000533379
20 *1559:A1 *1559:A2 4.00276e-06
21 *1564:A2 *1564:A1 1.89507e-06
22 *1564:A2 *588:85 9.05161e-05
23 *1579:A2 *1579:A1 3.57366e-05
24 *1583:A2 *1556:B 5.7661e-06
25 *1583:A2 *1583:A1 1.04232e-05
26 *1583:A2 *625:170 0
27 *1589:A2 *1589:B1 8.90371e-05
28 *1589:A2 *1589:B2 0.000374459
29 *1596:B1 *1565:B1 0
30 *1596:B1 *1596:B2 5.71472e-05
31 *587:8 *1559:A2 0
32 *587:8 *626:42 0.000174275
33 *587:8 *626:72 0.000141988
34 *587:12 *1579:A1 0.000224596
35 *587:12 *1580:A3 5.52302e-05
36 *587:32 *1576:A 5.0725e-05
37 *587:32 *1580:A2 0.000266473
38 *587:32 *1591:A1 4.15526e-05
39 *587:32 *1591:B2 1.90431e-05
40 *587:32 *1613:A1 4.58192e-05
41 *587:32 *588:37 0.00010647
42 *587:32 *602:30 0
43 *587:32 *625:65 0
44 *587:32 *657:6 0.00010982
45 *587:39 *588:37 2.26424e-05
46 *587:39 *588:47 0.000713789
47 *587:63 *1565:A3 0
48 *587:63 *1584:B1 0
49 *587:63 *1589:B2 6.26276e-05
50 *587:63 *1620:A1 2.89016e-05
51 *587:73 *1574:A1 4.88515e-05
52 *587:73 *1583:A1 6.40409e-05
53 *587:73 *588:85 0.000170226
54 *587:73 *626:90 0.000235909
55 *587:73 *637:33 0
56 *587:73 *638:6 5.72899e-05
57 *587:94 *1583:A1 1.98839e-05
58 *587:94 *622:14 0.000112743
59 *1563:B *1596:B1 5.18493e-05
60 *1564:C1 *587:63 0
61 *1579:C1 *587:39 0.000749962
62 *1583:B1 *587:73 9.60939e-05
63 *1589:C1 *1589:A2 0
64 *1591:A2 *587:32 5.1588e-05
65 *1596:A2 *1596:B1 7.58422e-05
66 *1605:C *1559:A1 8.25843e-06
67 *1605:C *587:8 4.88515e-05
68 *1614:A0 *1596:B1 0.000186393
69 *1621:S *587:8 0
70 *1634:A0 *1559:A1 0.000155476
71 *1646:D *587:73 1.24368e-05
72 *1646:D *587:94 8.50152e-05
73 *1648:D *587:32 6.17013e-05
74 *1649:RESET_B *587:8 0
75 *1649:RESET_B *587:12 0
76 *1669:CLK *1589:A2 5.71472e-05
77 *1669:D *1589:A2 6.70847e-05
78 *1669:RESET_B *1589:A2 8.9403e-05
79 *1674:RESET_B *587:73 5.88389e-05
80 *2:83 *587:32 0
81 *2:87 *587:32 7.65867e-05
82 *2:120 *587:32 0.000308511
83 *11:22 *587:63 0.000158912
84 *17:11 *1564:A2 0.000200053
85 *17:11 *587:73 0.000388641
86 *24:9 *587:94 4.45156e-05
87 *29:13 *1596:B1 0
88 *40:11 *587:32 4.46186e-06
89 *40:11 *587:39 5.23071e-05
90 *40:11 *587:50 0.000184329
91 *83:20 *587:94 0.000140442
92 *83:47 *587:73 0
93 *84:47 *1596:B1 0
94 *105:194 *587:63 0
95 *106:113 *587:32 0
96 *580:133 *587:8 0.000165621
97 *580:133 *587:12 5.63043e-05
98 *581:20 *1559:A1 4.98506e-05
99 *581:97 *587:32 0
100 *581:116 *587:32 0
101 *581:198 *1596:B1 9.54798e-06
102 *581:198 *587:94 2.06178e-05
103 *582:14 *587:94 8.5978e-05
104 *582:44 *587:39 3.42136e-05
105 *582:44 *587:50 0.000364103
106 *583:18 *1559:A1 0
107 *586:22 *1596:B1 0.000163517
108 *586:22 *587:94 1.90936e-05
109 *586:86 *587:32 0.000165264
*RES
1 *1557:X *587:4 9.3 
2 *587:4 *587:8 15.5694 
3 *587:8 *587:12 8.08913 
4 *587:12 *587:32 40.8926 
5 *587:32 *1591:B1 9.3 
6 *587:12 *587:39 14.4803 
7 *587:39 *1574:A2 13.8 
8 *587:39 *587:50 10.9852 
9 *587:50 *1589:A2 20.3149 
10 *587:50 *587:63 12.0743 
11 *587:63 *587:73 19.5991 
12 *587:73 *1583:A2 9.89406 
13 *587:73 *587:94 15.6141 
14 *587:94 *1567:A2 13.8 
15 *587:94 *1596:B1 24.7902 
16 *587:63 *1564:A2 17.3396 
17 *587:8 *1579:A2 10.3149 
18 *587:4 *1559:A1 21.7406 
*END

*D_NET *588 0.0164425
*CONN
*I *1559:A2 I *D sky130_fd_sc_hd__o21ai_0
*I *1593:A2 I *D sky130_fd_sc_hd__a21oi_1
*I *1579:B1 I *D sky130_fd_sc_hd__a221oi_1
*I *1568:B1 I *D sky130_fd_sc_hd__a22oi_1
*I *1564:B1 I *D sky130_fd_sc_hd__a221oi_1
*I *1584:B1 I *D sky130_fd_sc_hd__a221oi_1
*I *1589:B1 I *D sky130_fd_sc_hd__a221oi_1
*I *1574:B1 I *D sky130_fd_sc_hd__a221oi_1
*I *1598:A2 I *D sky130_fd_sc_hd__a21oi_1
*I *1558:X O *D sky130_fd_sc_hd__lpflow_isobufsrc_1
*CAP
1 *1559:A2 0.000265344
2 *1593:A2 0
3 *1579:B1 2.07752e-05
4 *1568:B1 0.000459644
5 *1564:B1 0
6 *1584:B1 0.000391209
7 *1589:B1 0.000472248
8 *1574:B1 0
9 *1598:A2 0.000188449
10 *1558:X 2.79692e-05
11 *588:85 0.00126545
12 *588:51 0.00051479
13 *588:47 0.000702099
14 *588:37 0.000608573
15 *588:18 0.00143902
16 *588:10 0.000983327
17 *588:8 0.000368907
18 *1559:A2 *1606:B1 0
19 *1559:A2 *1621:A1 0
20 *1559:A2 *625:128 0.000177678
21 *1559:A2 *626:24 8.40631e-05
22 *1559:A2 *627:26 0
23 *1568:B1 *1564:A1 5.52302e-05
24 *1568:B1 *1565:A3 0.000463246
25 *1568:B1 *1570:A3 9.41642e-05
26 *1579:B1 *1579:A1 5.52238e-05
27 *1584:B1 *1564:A1 5.52238e-05
28 *1584:B1 *1564:B2 2.72207e-05
29 *1584:B1 *1565:A3 5.52238e-05
30 *1584:B1 *1584:A1 2.89114e-05
31 *1589:B1 *1574:A1 1.04232e-05
32 *1589:B1 *1574:B2 5.90455e-05
33 *1589:B1 *1575:A3 8.35901e-05
34 *1589:B1 *1589:A1 5.71472e-05
35 *1589:B1 *1589:B2 0.000142997
36 *1589:B1 *637:33 7.28584e-05
37 *1598:A2 *1580:B1 0
38 *1598:A2 *1598:A1 3.57366e-05
39 *1598:A2 *1600:B1 0
40 *1598:A2 *626:58 0.000360894
41 *588:8 *1600:A2 3.67257e-05
42 *588:8 *626:24 3.30352e-05
43 *588:8 *626:26 3.69047e-06
44 *588:10 *1593:B1 4.75565e-05
45 *588:18 *1593:B1 2.83284e-06
46 *588:18 *625:65 0
47 *588:37 *1580:B1 0
48 *588:37 *602:30 0.000390392
49 *588:47 *1579:A1 1.44832e-05
50 *588:47 *1579:B2 0.000172789
51 *588:51 *1574:A1 3.69047e-06
52 *588:51 *1574:B2 6.10748e-05
53 *588:85 *1574:A1 0.000123479
54 *588:85 *1574:B2 0.000168177
55 *1559:A1 *1559:A2 4.00276e-06
56 *1564:A2 *588:85 9.05161e-05
57 *1564:C1 *1584:B1 2.25101e-05
58 *1568:A2 *1568:B1 6.08277e-06
59 *1579:C1 *588:37 1.02504e-05
60 *1589:A2 *1589:B1 8.90371e-05
61 *1589:C1 *1589:B1 0
62 *1591:A2 *588:37 9.80954e-05
63 *1594:B *1598:A2 0
64 *1608:A0 *1568:B1 0.000221634
65 *1614:A0 *1568:B1 2.59355e-05
66 *1617:A0 *1584:B1 0.00067278
67 *1634:A0 *1559:A2 2.6949e-05
68 *1634:A0 *588:10 5.67352e-05
69 *1634:A0 *588:18 6.27272e-06
70 *1649:RESET_B *1579:B1 0
71 *1649:RESET_B *588:47 4.38136e-05
72 *1666:D *1589:B1 1.07719e-05
73 *1674:D *588:85 7.61932e-05
74 *1674:RESET_B *588:85 5.72597e-05
75 *2:201 *588:18 0.000123509
76 *2:240 *588:18 0
77 *34:9 *1589:B1 0.000251108
78 *35:7 *1584:B1 0.00066865
79 *35:7 *588:85 0.000290777
80 *40:11 *588:47 0.000715497
81 *50:11 *1584:B1 5.381e-05
82 *83:47 *588:85 0
83 *106:6 *1589:B1 0
84 *106:26 *1589:B1 0
85 *108:10 *1559:A2 0
86 *109:107 *1598:A2 8.11728e-05
87 *109:107 *588:37 0.000125736
88 *111:164 *1598:A2 0.00026219
89 *111:191 *1598:A2 7.27536e-05
90 *580:101 *1568:B1 7.21864e-05
91 *581:122 *1598:A2 0
92 *586:32 *1568:B1 5.36e-05
93 *586:42 *1568:B1 0
94 *586:42 *1584:B1 0.0001399
95 *586:65 *1589:B1 0.000315037
96 *587:8 *1559:A2 0
97 *587:32 *588:37 0.00010647
98 *587:39 *588:37 2.26424e-05
99 *587:39 *588:47 0.000713789
100 *587:63 *1584:B1 0
101 *587:73 *588:85 0.000170226
*RES
1 *1558:X *588:8 15.1119 
2 *588:8 *588:10 2.69803 
3 *588:10 *588:18 9.37763 
4 *588:18 *1598:A2 22.451 
5 *588:18 *588:37 16.1461 
6 *588:37 *588:47 24.8417 
7 *588:47 *588:51 1.33664 
8 *588:51 *1574:B1 9.3 
9 *588:51 *1589:B1 36.3199 
10 *588:47 *588:85 25.8565 
11 *588:85 *1584:B1 35.9239 
12 *588:85 *1564:B1 9.3 
13 *588:85 *1568:B1 23.9288 
14 *588:37 *1579:B1 10.0426 
15 *588:10 *1593:A2 13.8 
16 *588:8 *1559:A2 21.6218 
*END

*D_NET *589 0.000356059
*CONN
*I *1560:B1 I *D sky130_fd_sc_hd__o21ai_0
*I *1559:Y O *D sky130_fd_sc_hd__o21ai_0
*CAP
1 *1560:B1 8.55318e-05
2 *1559:Y 8.55318e-05
3 *1560:B1 *625:35 1.97086e-05
4 *1560:B1 *625:39 1.92905e-05
5 *1560:B1 *626:24 5.52302e-05
6 *1560:A2 *1560:B1 1.41706e-05
7 *1634:A0 *1560:B1 5.25974e-05
8 *583:18 *1560:B1 2.39979e-05
*RES
1 *1559:Y *1560:B1 31.0406 
*END

*D_NET *590 0.00230508
*CONN
*I *1565:A1 I *D sky130_fd_sc_hd__a31oi_1
*I *1561:Y O *D sky130_fd_sc_hd__nand2_1
*CAP
1 *1565:A1 0.000269662
2 *1561:Y 0.000269662
3 *1565:A1 *1565:A2 3.18676e-05
4 *1565:A1 *1565:A3 0.000603763
5 *1565:A1 *625:170 0.00018077
6 *1614:A0 *1565:A1 0
7 *11:22 *1565:A1 0.000268134
8 *24:9 *1565:A1 0.000340311
9 *29:13 *1565:A1 0.000340905
*RES
1 *1561:Y *1565:A1 42.9466 
*END

*D_NET *591 0.0020691
*CONN
*I *1565:A2 I *D sky130_fd_sc_hd__a31oi_1
*I *1562:Y O *D sky130_fd_sc_hd__nand3_1
*CAP
1 *1565:A2 0.000432234
2 *1562:Y 0.000432234
3 *1565:A2 *618:14 0.000170519
4 *1565:A2 *629:8 0
5 *1565:A2 *645:10 2.18393e-05
6 *1547:A *1565:A2 3.67257e-05
7 *1565:A1 *1565:A2 3.18676e-05
8 *1614:A0 *1565:A2 2.58611e-05
9 *1645:D *1565:A2 0.000180066
10 *1:21 *1565:A2 0.000180683
11 *11:14 *1565:A2 2.89114e-05
12 *11:22 *1565:A2 3.53922e-05
13 *44:23 *1565:A2 0
14 *50:19 *1565:A2 2.15245e-05
15 *84:47 *1565:A2 7.36441e-05
16 *579:12 *1565:A2 0.000397599
*RES
1 *1562:Y *1565:A2 46.0159 
*END

*D_NET *592 0.000838075
*CONN
*I *1565:B1 I *D sky130_fd_sc_hd__a31oi_1
*I *1563:Y O *D sky130_fd_sc_hd__nor2_1
*CAP
1 *1565:B1 0.000184368
2 *1563:Y 0.000184368
3 *1596:B1 *1565:B1 0
4 *11:14 *1565:B1 1.58029e-05
5 *11:22 *1565:B1 2.79421e-05
6 *29:13 *1565:B1 9.25014e-06
7 *84:34 *1565:B1 0.000127297
8 *84:47 *1565:B1 2.48938e-05
9 *105:186 *1565:B1 0.000264153
*RES
1 *1563:Y *1565:B1 33.8872 
*END

*D_NET *593 0.00237197
*CONN
*I *1565:A3 I *D sky130_fd_sc_hd__a31oi_1
*I *1564:Y O *D sky130_fd_sc_hd__a221oi_1
*CAP
1 *1565:A3 0.000591356
2 *1564:Y 0.000591356
3 *1565:A3 *625:170 4.43256e-05
4 *1565:A1 *1565:A3 0.000603763
5 *1568:B1 *1565:A3 0.000463246
6 *1584:B1 *1565:A3 5.52238e-05
7 *1614:A0 *1565:A3 2.26989e-05
8 *11:22 *1565:A3 0
9 *587:63 *1565:A3 0
*RES
1 *1564:Y *1565:A3 37.1645 
*END

*D_NET *594 0.0023401
*CONN
*I *1567:B1 I *D sky130_fd_sc_hd__a21oi_1
*I *1566:X O *D sky130_fd_sc_hd__and3_1
*CAP
1 *1567:B1 0.000587914
2 *1566:X 0.000587914
3 *1567:B1 *1566:C 4.61051e-05
4 *1567:B1 *1570:B1 9.60939e-05
5 *1567:B1 *1632:A1 0.000124893
6 *1567:B1 *625:183 0
7 *1567:B1 *637:33 9.41642e-05
8 *1563:B *1567:B1 0.000436314
9 *1569:A *1567:B1 6.04258e-05
10 *1570:A1 *1567:B1 0
11 *1632:A0 *1567:B1 9.66977e-05
12 *1632:S *1567:B1 6.42095e-05
13 *1646:D *1567:B1 1.90303e-05
14 *1681:D *1567:B1 5.52238e-05
15 *104:10 *1567:B1 0
16 *105:186 *1567:B1 1.21289e-05
17 *105:194 *1567:B1 5.89838e-05
*RES
1 *1566:X *1567:B1 39.0209 
*END

*D_NET *595 0.000573824
*CONN
*I *1570:A2 I *D sky130_fd_sc_hd__a31oi_1
*I *1567:Y O *D sky130_fd_sc_hd__a21oi_1
*CAP
1 *1570:A2 7.09986e-05
2 *1567:Y 7.09986e-05
3 *1570:A2 *1570:A3 0.000197127
4 *1605:C *1570:A2 1.3142e-05
5 *1634:A0 *1570:A2 0.000221557
*RES
1 *1567:Y *1570:A2 31.5604 
*END

*D_NET *596 0.0016628
*CONN
*I *1570:A3 I *D sky130_fd_sc_hd__a31oi_1
*I *1568:Y O *D sky130_fd_sc_hd__a22oi_1
*CAP
1 *1570:A3 0.000230547
2 *1568:Y 0.000230547
3 *1570:A3 *1608:A1 1.10856e-05
4 *1570:A3 *625:143 1.22103e-05
5 *1570:A3 *625:170 2.7547e-05
6 *1568:B1 *1570:A3 9.41642e-05
7 *1570:A2 *1570:A3 0.000197127
8 *1605:C *1570:A3 0.000515439
9 *1634:A0 *1570:A3 0.000137993
10 *1646:D *1570:A3 9.08261e-06
11 *31:7 *1570:A3 9.32348e-05
12 *83:20 *1570:A3 4.06087e-07
13 *580:95 *1570:A3 9.25014e-06
14 *586:32 *1570:A3 9.41642e-05
*RES
1 *1568:Y *1570:A3 39.4008 
*END

*D_NET *597 0.000495006
*CONN
*I *1570:B1 I *D sky130_fd_sc_hd__a31oi_1
*I *1569:Y O *D sky130_fd_sc_hd__nor2_1
*CAP
1 *1570:B1 6.68052e-05
2 *1569:Y 6.68052e-05
3 *1570:B1 *625:183 0
4 *1567:B1 *1570:B1 9.60939e-05
5 *1570:A1 *1570:B1 0
6 *581:198 *1570:B1 0.000133005
7 *586:22 *1570:B1 0.000132297
*RES
1 *1569:Y *1570:B1 31.1891 
*END

*D_NET *598 0.00113065
*CONN
*I *1575:A1 I *D sky130_fd_sc_hd__a31oi_1
*I *1571:Y O *D sky130_fd_sc_hd__nand2_1
*CAP
1 *1575:A1 0.000280072
2 *1571:Y 0.000280072
3 *1575:A1 *1571:A 0.00011857
4 *1575:A1 *1575:A2 6.8646e-06
5 *1575:A1 *651:14 0.000158137
6 *1571:B *1575:A1 2.27416e-05
7 *1588:B *1575:A1 6.85906e-05
8 *1647:D *1575:A1 0.000106914
9 *36:5 *1575:A1 0
10 *106:26 *1575:A1 3.75306e-05
11 *580:183 *1575:A1 0
12 *581:87 *1575:A1 5.11571e-05
*RES
1 *1571:Y *1575:A1 38.3921 
*END

*D_NET *599 0.00200662
*CONN
*I *1575:A2 I *D sky130_fd_sc_hd__a31oi_1
*I *1572:Y O *D sky130_fd_sc_hd__nand3_1
*CAP
1 *1575:A2 0.000287635
2 *1572:Y 0.000287635
3 *1575:A2 *1575:A3 3.31648e-05
4 *1575:A2 *1575:B1 1.3701e-05
5 *1575:A2 *637:10 0.000103974
6 *1575:A2 *651:14 0.000350097
7 *1575:A1 *1575:A2 6.8646e-06
8 *1647:CLK *1575:A2 2.16719e-05
9 *1647:D *1575:A2 1.33343e-05
10 *1658:D *1575:A2 0.000342302
11 *1658:RESET_B *1575:A2 0.000127793
12 *1673:D *1575:A2 5.52238e-05
13 *1682:RESET_B *1575:A2 0.000221634
14 *2:656 *1575:A2 1.94945e-05
15 *20:13 *1575:A2 1.02936e-05
16 *36:5 *1575:A2 9.98998e-06
17 *106:26 *1575:A2 0
18 *108:194 *1575:A2 1.32552e-05
19 *580:192 *1575:A2 3.97677e-05
20 *580:198 *1575:A2 4.87854e-05
*RES
1 *1572:Y *1575:A2 41.0159 
*END

*D_NET *600 0.00018958
*CONN
*I *1575:B1 I *D sky130_fd_sc_hd__a31oi_1
*I *1573:Y O *D sky130_fd_sc_hd__nor2_1
*CAP
1 *1575:B1 5.41735e-05
2 *1573:Y 5.41735e-05
3 *1575:B1 *1575:A3 1.74352e-05
4 *1575:A2 *1575:B1 1.3701e-05
5 *106:26 *1575:B1 0
6 *581:83 *1575:B1 1.07719e-05
7 *581:97 *1575:B1 3.93247e-05
*RES
1 *1573:Y *1575:B1 20.506 
*END

*D_NET *601 0.0027028
*CONN
*I *1575:A3 I *D sky130_fd_sc_hd__a31oi_1
*I *1574:Y O *D sky130_fd_sc_hd__a221oi_1
*CAP
1 *1575:A3 0.000434026
2 *1574:Y 0.000434026
3 *1573:A *1575:A3 9.16173e-05
4 *1575:A2 *1575:A3 3.31648e-05
5 *1575:B1 *1575:A3 1.74352e-05
6 *1589:B1 *1575:A3 8.35901e-05
7 *1647:D *1575:A3 2.65105e-05
8 *2:75 *1575:A3 0.000177533
9 *2:79 *1575:A3 0.000200059
10 *18:13 *1575:A3 0.000202976
11 *106:6 *1575:A3 9.33978e-07
12 *106:26 *1575:A3 0
13 *106:113 *1575:A3 0.000114645
14 *108:194 *1575:A3 0.000746382
15 *581:83 *1575:A3 0
16 *581:97 *1575:A3 0.000139907
*RES
1 *1574:Y *1575:A3 49.11 
*END

*D_NET *602 0.00224442
*CONN
*I *1580:A1 I *D sky130_fd_sc_hd__a31oi_1
*I *1576:Y O *D sky130_fd_sc_hd__nand2_1
*CAP
1 *1580:A1 0
2 *1576:Y 0.000411702
3 *602:30 0.000411702
4 *602:30 *1576:A 5.52302e-05
5 *602:30 *1580:A2 2.2231e-05
6 *602:30 *1580:B1 0.000140437
7 *602:30 *616:12 0.000139913
8 *1591:A2 *602:30 0.000128019
9 *1648:CLK *602:30 2.56089e-05
10 *1648:D *602:30 9.22103e-06
11 *109:107 *602:30 0.000371984
12 *580:133 *602:30 0.000137983
13 *587:32 *602:30 0
14 *588:37 *602:30 0.000390392
*RES
1 *1576:Y *602:30 44.8001 
2 *602:30 *1580:A1 9.3 
*END

*D_NET *603 0.00144664
*CONN
*I *1580:A2 I *D sky130_fd_sc_hd__a31oi_1
*I *1577:Y O *D sky130_fd_sc_hd__nand3_1
*CAP
1 *1580:A2 0.000283456
2 *1577:Y 0.000283456
3 *1580:A2 *1576:A 4.27437e-05
4 *1580:A2 *1580:A3 0.000106199
5 *1580:A2 *626:58 0.000142856
6 *1648:CLK *1580:A2 0
7 *1648:D *1580:A2 5.19842e-06
8 *106:113 *1580:A2 0.000104614
9 *580:133 *1580:A2 5.20359e-06
10 *586:86 *1580:A2 0.000184209
11 *587:32 *1580:A2 0.000266473
12 *602:30 *1580:A2 2.2231e-05
*RES
1 *1577:Y *1580:A2 38.3674 
*END

*D_NET *604 0.0010983
*CONN
*I *1580:B1 I *D sky130_fd_sc_hd__a31oi_1
*I *1578:Y O *D sky130_fd_sc_hd__nor2_1
*CAP
1 *1580:B1 0.000268569
2 *1578:Y 0.000268569
3 *1580:B1 *1600:A2 0.000228558
4 *1580:B1 *1600:B1 5.58941e-05
5 *1591:A2 *1580:B1 2.47093e-05
6 *1598:A2 *1580:B1 0
7 *1648:D *1580:B1 2.89114e-05
8 *106:113 *1580:B1 4.70981e-05
9 *106:115 *1580:B1 0
10 *111:164 *1580:B1 2.46032e-05
11 *111:191 *1580:B1 4.0342e-06
12 *581:116 *1580:B1 6.91215e-06
13 *581:122 *1580:B1 0
14 *588:37 *1580:B1 0
15 *602:30 *1580:B1 0.000140437
*RES
1 *1578:Y *1580:B1 37.0802 
*END

*D_NET *605 0.00125301
*CONN
*I *1580:A3 I *D sky130_fd_sc_hd__a31oi_1
*I *1579:Y O *D sky130_fd_sc_hd__a221oi_1
*CAP
1 *1580:A3 0.000216551
2 *1579:Y 0.000216551
3 *1580:A3 *1579:A1 1.54142e-05
4 *1580:A3 *639:10 8.49318e-05
5 *1580:A2 *1580:A3 0.000106199
6 *1613:A0 *1580:A3 0.000265453
7 *18:13 *1580:A3 8.45782e-05
8 *106:113 *1580:A3 0.000117585
9 *580:133 *1580:A3 7.84241e-05
10 *586:86 *1580:A3 1.2086e-05
11 *587:12 *1580:A3 5.52302e-05
*RES
1 *1579:Y *1580:A3 37.9713 
*END

*D_NET *606 0.00121218
*CONN
*I *1584:C1 I *D sky130_fd_sc_hd__a221oi_1
*I *1581:X O *D sky130_fd_sc_hd__and3_1
*CAP
1 *1584:C1 0.000317238
2 *1581:X 0.000317238
3 *1584:C1 *1581:C 2.53403e-05
4 *1584:C1 *609:28 5.05484e-05
5 *1584:C1 *625:170 2.28762e-05
6 s_axi_bvalid *1584:C1 1.60258e-05
7 *1623:A0 *1584:C1 0.000182085
8 *1623:S *1584:C1 0.000181796
9 *1684:D *1584:C1 4.38056e-05
10 *11:22 *1584:C1 0
11 *580:307 *1584:C1 5.52238e-05
*RES
1 *1581:X *1584:C1 37.7238 
*END

*D_NET *607 0.00242597
*CONN
*I *1585:B1 I *D sky130_fd_sc_hd__a21oi_1
*I *1582:Y O *D sky130_fd_sc_hd__nor2_1
*CAP
1 *1585:B1 0.000596673
2 *1582:Y 0.000596673
3 *1585:B1 *1585:A1 0.000133754
4 *1585:B1 *1627:A1 6.76124e-05
5 *1585:B1 *626:82 3.29511e-05
6 *1585:B1 *630:12 0
7 *1123:A *1585:B1 4.58835e-05
8 *1582:A *1585:B1 0.00014183
9 *1649:D *1585:B1 0.000108986
10 *1666:RESET_B *1585:B1 1.77736e-05
11 *1676:D *1585:B1 0.000171754
12 *1676:RESET_B *1585:B1 0.000219797
13 *2:623 *1585:B1 1.00073e-05
14 *24:9 *1585:B1 6.62868e-05
15 *83:8 *1585:B1 1.58163e-05
16 *83:47 *1585:B1 0.000166896
17 *83:49 *1585:B1 1.02936e-05
18 *83:55 *1585:B1 3.69047e-06
19 *83:122 *1585:B1 1.92905e-05
20 *108:180 *1585:B1 0
*RES
1 *1582:Y *1585:B1 49.1843 
*END

*D_NET *608 0.00254643
*CONN
*I *1585:A1 I *D sky130_fd_sc_hd__a21oi_1
*I *1583:Y O *D sky130_fd_sc_hd__a21oi_1
*CAP
1 *1585:A1 0.00051116
2 *1583:Y 0.00051116
3 *1585:A1 *609:28 4.25251e-05
4 *1585:A1 *626:90 9.60875e-05
5 *1123:A *1585:A1 6.99468e-05
6 *1585:B1 *1585:A1 0.000133754
7 *1646:D *1585:A1 6.58638e-05
8 *1654:CLK *1585:A1 0
9 *1676:RESET_B *1585:A1 5.405e-05
10 *1681:CLK *1585:A1 5.94701e-05
11 *24:9 *1585:A1 6.79209e-05
12 *83:12 *1585:A1 0.000147626
13 *83:47 *1585:A1 8.46044e-06
14 *83:122 *1585:A1 3.81226e-05
15 *581:65 *1585:A1 0.000208744
16 *581:77 *1585:A1 0.00050906
17 *582:14 *1585:A1 2.24813e-05
*RES
1 *1583:Y *1585:A1 45.3405 
*END

*D_NET *609 0.00675208
*CONN
*I *1585:A2 I *D sky130_fd_sc_hd__a21oi_1
*I *1584:Y O *D sky130_fd_sc_hd__a221oi_1
*CAP
1 *1585:A2 0
2 *1584:Y 0.00229242
3 *609:28 0.00229242
4 *609:28 *1562:B 0.000371696
5 *609:28 *1584:A1 9.92409e-05
6 *609:28 *1601:A0 0.000324352
7 *609:28 *1623:A1 7.02772e-05
8 *609:28 *626:92 0.000190168
9 *609:28 *626:98 0.000153477
10 *1123:A *609:28 0.00036557
11 *1584:C1 *609:28 5.05484e-05
12 *1585:A1 *609:28 4.25251e-05
13 *1623:A0 *609:28 0
14 *1684:D *609:28 0.000256665
15 *1:21 *609:28 0.000132328
16 *83:12 *609:28 0
17 *84:34 *609:28 3.19503e-05
18 *580:297 *609:28 1.92756e-05
19 *582:14 *609:28 5.917e-05
*RES
1 *1584:Y *609:28 46.7847 
2 *609:28 *1585:A2 9.3 
*END

*D_NET *610 0.00196864
*CONN
*I *1590:A1 I *D sky130_fd_sc_hd__a31oi_1
*I *1586:Y O *D sky130_fd_sc_hd__nand2_1
*CAP
1 *1590:A1 0.000329833
2 *1586:Y 0.000329833
3 *1590:A1 *1590:A2 8.03678e-05
4 *1590:A1 *1590:B1 5.78825e-05
5 *1588:A *1590:A1 6.80108e-05
6 *1588:B *1590:A1 5.32634e-05
7 *1619:A0 *1590:A1 0.000107404
8 *9:11 *1590:A1 0.000280402
9 *20:13 *1590:A1 0.00066164
*RES
1 *1586:Y *1590:A1 45.1001 
*END

*D_NET *611 0.000351495
*CONN
*I *1590:A2 I *D sky130_fd_sc_hd__a31oi_1
*I *1587:Y O *D sky130_fd_sc_hd__nand3_1
*CAP
1 *1590:A2 6.76207e-05
2 *1587:Y 6.76207e-05
3 *1590:A2 *1587:A 6.05161e-06
4 *1590:A2 *1589:A1 2.15245e-05
5 *1590:A1 *1590:A2 8.03678e-05
6 *1628:A0 *1590:A2 3.69047e-06
7 *20:13 *1590:A2 8.03678e-05
8 *80:112 *1590:A2 2.42516e-05
*RES
1 *1587:Y *1590:A2 30.3475 
*END

*D_NET *612 0.000487933
*CONN
*I *1590:B1 I *D sky130_fd_sc_hd__a31oi_1
*I *1588:Y O *D sky130_fd_sc_hd__nor2_1
*CAP
1 *1590:B1 0.00011076
2 *1588:Y 0.00011076
3 *1590:B1 *1589:A1 9.20581e-06
4 *1588:A *1590:B1 2.11419e-05
5 *1588:B *1590:B1 0.000129387
6 *1590:A1 *1590:B1 5.78825e-05
7 *80:112 *1590:B1 4.87953e-05
*RES
1 *1588:Y *1590:B1 31.7832 
*END

*D_NET *613 0.000529061
*CONN
*I *1590:A3 I *D sky130_fd_sc_hd__a31oi_1
*I *1589:Y O *D sky130_fd_sc_hd__a221oi_1
*CAP
1 *1590:A3 0.000105836
2 *1589:Y 0.000105836
3 *1590:A3 *1589:A1 0.000137109
4 *1590:A3 *1589:B2 0
5 *1650:D *1590:A3 0.000158757
6 *105:200 *1590:A3 2.15245e-05
*RES
1 *1589:Y *1590:A3 23.3773 
*END

*D_NET *614 0.000426204
*CONN
*I *1595:A2 I *D sky130_fd_sc_hd__a31oi_1
*I *1591:Y O *D sky130_fd_sc_hd__a22oi_1
*CAP
1 *1595:A2 6.35037e-05
2 *1591:Y 6.35037e-05
3 *1595:A2 *1595:B1 6.73674e-05
4 *1595:A2 *1598:B1 0
5 *1595:A2 *616:12 0.000154097
6 *1651:D *1595:A2 2.44318e-05
7 *2:120 *1595:A2 5.33005e-05
*RES
1 *1591:Y *1595:A2 21.8178 
*END

*D_NET *615 0.000628233
*CONN
*I *1593:B1 I *D sky130_fd_sc_hd__a21oi_1
*I *1592:X O *D sky130_fd_sc_hd__and3_1
*CAP
1 *1593:B1 0.000148622
2 *1592:X 0.000148622
3 *1593:B1 *1621:A1 0.000126439
4 *1593:B1 *616:12 6.09658e-05
5 *1593:B1 *626:26 6.09658e-05
6 *1593:B1 *634:10 3.22304e-05
7 *588:10 *1593:B1 4.75565e-05
8 *588:18 *1593:B1 2.83284e-06
*RES
1 *1592:X *1593:B1 32.7485 
*END

*D_NET *616 0.00478404
*CONN
*I *1595:A3 I *D sky130_fd_sc_hd__a31oi_1
*I *1593:Y O *D sky130_fd_sc_hd__a21oi_1
*CAP
1 *1595:A3 0
2 *1593:Y 0.000809545
3 *616:12 0.000809545
4 *616:12 *1592:B 4.87669e-06
5 *616:12 *1595:B1 0.000371446
6 *616:12 *1598:B1 0
7 *616:12 *1600:A2 0.000738435
8 *616:12 *1637:A1 0
9 *616:12 *625:43 0
10 *616:12 *625:55 0
11 *616:12 *626:26 0
12 *616:12 *626:34 0
13 *1578:B *616:12 0.000358977
14 *1591:A2 *616:12 0.000445107
15 *1593:B1 *616:12 6.09658e-05
16 *1595:A2 *616:12 0.000154097
17 *1622:A0 *616:12 0.000108437
18 *1648:CLK *616:12 7.07155e-06
19 *1648:RESET_B *616:12 0
20 *1687:D *616:12 0
21 *2:120 *616:12 1.55885e-05
22 *111:191 *616:12 0
23 *271:16 *616:12 0.000746034
24 *581:116 *616:12 1.40034e-05
25 *602:30 *616:12 0.000139913
*RES
1 *1593:Y *616:12 43.1368 
2 *616:12 *1595:A3 9.3 
*END

*D_NET *617 0.0016799
*CONN
*I *1595:B1 I *D sky130_fd_sc_hd__a31oi_1
*I *1594:Y O *D sky130_fd_sc_hd__nor2_1
*CAP
1 *1595:B1 0.000338734
2 *1594:Y 0.000338734
3 *1591:A2 *1595:B1 0.000213331
4 *1594:A *1595:B1 9.25014e-06
5 *1595:A2 *1595:B1 6.73674e-05
6 *1651:RESET_B *1595:B1 0.00013792
7 *1671:D *1595:B1 0.000107165
8 *2:87 *1595:B1 1.437e-05
9 *2:89 *1595:B1 8.15858e-05
10 *111:191 *1595:B1 0
11 *616:12 *1595:B1 0.000371446
*RES
1 *1594:Y *1595:B1 41.2139 
*END

*D_NET *618 0.00842626
*CONN
*I *1600:A2 I *D sky130_fd_sc_hd__a31oi_1
*I *1596:Y O *D sky130_fd_sc_hd__a22oi_1
*CAP
1 *1600:A2 0.000901264
2 *1596:Y 0.000760792
3 *618:14 0.00166206
4 *1600:A2 *1577:C 0
5 *1600:A2 *1593:A1 0.000119482
6 *1600:A2 *1600:A3 7.71983e-06
7 *1600:A2 *1600:B1 5.33005e-05
8 *1600:A2 *1634:A1 0
9 *1600:A2 *625:39 0
10 *1600:A2 *626:10 0
11 *1600:A2 *626:26 0
12 *1600:A2 *652:14 8.25843e-06
13 *618:14 *1596:A1 1.88032e-05
14 *618:14 *1602:B2 0.00118237
15 *618:14 *1632:A1 8.32242e-05
16 *618:14 *626:10 0
17 *618:14 *627:62 6.20421e-05
18 *618:14 *640:6 7.83515e-06
19 *1554:B1 *1600:A2 0.000103279
20 *1560:A1 *1600:A2 0
21 *1560:A2 *1600:A2 3.22772e-05
22 *1565:A2 *618:14 0.000170519
23 *1578:A *1600:A2 0.000229373
24 *1578:B *1600:A2 0.000199058
25 *1580:B1 *1600:A2 0.000228558
26 *1596:A2 *618:14 5.71697e-05
27 *1602:A3 *618:14 0.000110933
28 *1634:A0 *1600:A2 0
29 *1643:CLK *1600:A2 0
30 *1643:D *1600:A2 1.92789e-05
31 *1644:D *1600:A2 1.92789e-05
32 *1652:D *1600:A2 5.52302e-05
33 *1653:D *618:14 7.49063e-05
34 *1655:D *618:14 5.21933e-05
35 *1686:D *1600:A2 2.59355e-05
36 *1:21 *618:14 0.000101416
37 *84:34 *618:14 0.000259226
38 *84:47 *618:14 0.000217413
39 *105:12 *618:14 1.5942e-05
40 *111:191 *1600:A2 1.20883e-05
41 *112:30 *618:14 0.000155529
42 *579:12 *618:14 3.26388e-05
43 *582:14 *618:14 0.00061171
44 *588:8 *1600:A2 3.67257e-05
45 *616:12 *1600:A2 0.000738435
*RES
1 *1596:Y *618:14 49.0229 
2 *618:14 *1600:A2 46.8695 
*END

*D_NET *619 0.0012636
*CONN
*I *1598:B1 I *D sky130_fd_sc_hd__a21oi_1
*I *1597:X O *D sky130_fd_sc_hd__and3_1
*CAP
1 *1598:B1 0.000364444
2 *1597:X 0.000364444
3 *1598:B1 *1622:A1 5.75147e-05
4 *1598:B1 *626:58 5.43169e-05
5 *1591:A2 *1598:B1 3.47969e-05
6 *1595:A2 *1598:B1 0
7 *1651:D *1598:B1 6.97494e-05
8 *1671:D *1598:B1 0.000123902
9 *111:191 *1598:B1 0.000194436
10 *616:12 *1598:B1 0
*RES
1 *1597:X *1598:B1 31.8921 
*END

*D_NET *620 0.000839908
*CONN
*I *1600:A3 I *D sky130_fd_sc_hd__a31oi_1
*I *1598:Y O *D sky130_fd_sc_hd__a21oi_1
*CAP
1 *1600:A3 0.000234928
2 *1598:Y 0.000234928
3 *1600:A3 *1622:A1 7.02772e-05
4 *1591:A2 *1600:A3 1.08359e-05
5 *1600:A2 *1600:A3 7.71983e-06
6 *1634:S *1600:A3 4.038e-06
7 *1652:D *1600:A3 3.53108e-05
8 *18:13 *1600:A3 9.25014e-06
9 *106:115 *1600:A3 0.000119696
10 *111:191 *1600:A3 9.34289e-05
11 *581:122 *1600:A3 1.94945e-05
*RES
1 *1598:Y *1600:A3 38.4324 
*END

*D_NET *621 0.000412863
*CONN
*I *1600:B1 I *D sky130_fd_sc_hd__a31oi_1
*I *1599:Y O *D sky130_fd_sc_hd__nor2_1
*CAP
1 *1600:B1 6.3003e-05
2 *1599:Y 6.3003e-05
3 *1578:B *1600:B1 5.33005e-05
4 *1580:B1 *1600:B1 5.58941e-05
5 *1598:A2 *1600:B1 0
6 *1600:A2 *1600:B1 5.33005e-05
7 *581:122 *1600:B1 0.000124362
*RES
1 *1599:Y *1600:B1 30.6198 
*END

*D_NET *622 0.0105828
*CONN
*I *1602:B2 I *D sky130_fd_sc_hd__a32o_1
*I *1601:X O *D sky130_fd_sc_hd__mux4_2
*CAP
1 *1602:B2 0.000690871
2 *1601:X 0.00273787
3 *622:14 0.00342874
4 *1602:B2 *1602:A1 2.89114e-05
5 *1602:B2 *628:12 4.72917e-05
6 *622:14 *1596:B2 4.5927e-05
7 *622:14 *1601:A0 8.6229e-06
8 *622:14 *642:12 0.000102779
9 *1552:A2 *1602:B2 9.60875e-05
10 *1553:B *1602:B2 8.11174e-05
11 *1574:C1 *622:14 0
12 *1603:A2 *1602:B2 0
13 *1628:S *622:14 7.04329e-05
14 *2:240 *1602:B2 8.15736e-05
15 *2:269 *1602:B2 8.23597e-06
16 *9:11 *622:14 0.000345964
17 *14:5 *622:14 0.000115251
18 *36:5 *622:14 2.14378e-05
19 *104:18 *1602:B2 1.94945e-05
20 *105:12 *1602:B2 0.000328653
21 *105:186 *1602:B2 7.34455e-06
22 *109:14 *622:14 0.000144789
23 *109:34 *622:14 0.000112173
24 *112:30 *1602:B2 0.000118028
25 *579:12 *1602:B2 0.000548899
26 *581:16 *1602:B2 4.19535e-05
27 *582:14 *622:14 0
28 *582:16 *622:14 0
29 *583:18 *1602:B2 5.52302e-05
30 *587:94 *622:14 0.000112743
31 *618:14 *1602:B2 0.00118237
*RES
1 *1601:X *622:14 30.7894 
2 *622:14 *1602:B2 46.6796 
*END

*D_NET *623 0.00241686
*CONN
*I *1604:B I *D sky130_fd_sc_hd__nand2_1
*I *1606:A3 I *D sky130_fd_sc_hd__a31o_1
*I *1603:Y O *D sky130_fd_sc_hd__o211ai_1
*CAP
1 *1604:B 0.000290881
2 *1606:A3 2.23854e-05
3 *1603:Y 4.658e-05
4 *623:6 0.000359846
5 *1604:B *1551:A 1.98839e-05
6 *1604:B *1555:B 5.33005e-05
7 *1604:B *626:202 4.1501e-05
8 *1604:B *627:18 0.000180501
9 *1604:B *628:34 0.000309273
10 *623:6 *1603:C1 5.52238e-05
11 *623:6 *1606:B1 1.15172e-05
12 *1550:B *1604:B 4.08637e-05
13 *1603:B1 *623:6 1.98839e-05
14 *1604:A *1604:B 9.58015e-05
15 *1655:D *1604:B 0.000291091
16 *1655:D *623:6 9.46083e-05
17 *112:93 *1604:B 0.000262498
18 *577:18 *1604:B 4.44976e-05
19 *577:20 *1604:B 1.96677e-05
20 *577:20 *623:6 2.01e-05
21 *582:14 *1604:B 0.000136958
*RES
1 *1603:Y *623:6 11.1874 
2 *623:6 *1606:A3 9.89406 
3 *623:6 *1604:B 22.586 
*END

*D_NET *624 0.000769805
*CONN
*I *1606:B1 I *D sky130_fd_sc_hd__a31o_1
*I *1605:Y O *D sky130_fd_sc_hd__nor3_1
*CAP
1 *1606:B1 0.000176426
2 *1605:Y 0.000176426
3 *1606:B1 *627:26 0.000106545
4 *1559:A2 *1606:B1 0
5 *1605:A *1606:B1 5.33005e-05
6 *1605:C *1606:B1 1.33343e-05
7 *1655:D *1606:B1 6.96405e-05
8 *83:122 *1606:B1 0.000149421
9 *581:20 *1606:B1 7.79781e-06
10 *581:29 *1606:B1 0
11 *583:18 *1606:B1 5.39629e-06
12 *623:6 *1606:B1 1.15172e-05
*RES
1 *1605:Y *1606:B1 33.8872 
*END

*D_NET *625 0.0269772
*CONN
*I *1555:A I *D sky130_fd_sc_hd__nand2_1
*I *1554:A1 I *D sky130_fd_sc_hd__a21oi_1
*I *1566:A I *D sky130_fd_sc_hd__and3_1
*I *1562:A I *D sky130_fd_sc_hd__nand3_1
*I *1581:A I *D sky130_fd_sc_hd__and3_1
*I *1556:A I *D sky130_fd_sc_hd__nor2_1
*I *1557:SLEEP I *D sky130_fd_sc_hd__lpflow_isobufsrc_1
*I *1558:A I *D sky130_fd_sc_hd__lpflow_isobufsrc_1
*I *1592:A I *D sky130_fd_sc_hd__and3_1
*I *1577:A I *D sky130_fd_sc_hd__nand3_1
*I *1587:A I *D sky130_fd_sc_hd__nand3_1
*I *1601:S0 I *D sky130_fd_sc_hd__mux4_2
*I *1572:A I *D sky130_fd_sc_hd__nand3_1
*I *1597:A I *D sky130_fd_sc_hd__and3_1
*I *1553:A I *D sky130_fd_sc_hd__nor2_1
*I *1643:Q O *D sky130_fd_sc_hd__dfrtp_1
*CAP
1 *1555:A 0.000373739
2 *1554:A1 2.18742e-05
3 *1566:A 7.90014e-05
4 *1562:A 0.000514407
5 *1581:A 0
6 *1556:A 0
7 *1557:SLEEP 0
8 *1558:A 0
9 *1592:A 0
10 *1577:A 0
11 *1587:A 0.00020031
12 *1601:S0 0.000342067
13 *1572:A 4.24139e-05
14 *1597:A 0.000258
15 *1553:A 0.000166934
16 *1643:Q 7.66e-05
17 *625:183 0.00116442
18 *625:170 0.000674936
19 *625:143 0.000708077
20 *625:139 0.000863934
21 *625:128 0.000423387
22 *625:82 0.000521056
23 *625:65 0.00220347
24 *625:55 0.00181897
25 *625:43 0.000319796
26 *625:41 0.000162945
27 *625:39 0.000345752
28 *625:35 0.000522734
29 *625:25 0.000762555
30 *625:10 0.000260105
31 *1554:A1 *626:24 1.07719e-05
32 *1555:A *626:202 4.88515e-05
33 *1555:A *628:12 4.58192e-05
34 *1555:A *628:28 4.00025e-05
35 *1555:A *628:34 0
36 *1562:A *658:14 0.000148859
37 *1566:A *1566:B 6.71755e-05
38 *1566:A *1566:C 1.74352e-05
39 *1566:A *1632:A1 1.56e-05
40 *1587:A *1587:C 0.000113388
41 *1587:A *642:12 4.00276e-06
42 *1597:A *1597:C 0
43 *1597:A *1638:A1 0
44 *1597:A *631:14 1.7897e-05
45 *625:39 *626:24 7.45004e-05
46 *625:41 *626:24 5.52302e-05
47 *625:41 *626:26 8.51331e-05
48 *625:43 *1637:A1 0.000103194
49 *625:43 *626:26 0.00031194
50 *625:43 *626:34 5.33005e-05
51 *625:43 *652:14 0.000165202
52 *625:55 *1577:C 2.44318e-05
53 *625:55 *1637:A1 0.000146381
54 *625:55 *626:34 6.31171e-05
55 *625:55 *626:58 1.73088e-05
56 *625:65 *1577:C 5.00087e-06
57 *625:82 *631:14 0.00013924
58 *625:128 *626:24 0.000127297
59 *625:143 *1556:B 1.34959e-05
60 *625:170 *1581:C 0.000121712
61 *625:170 *626:90 0.000200698
62 *625:170 *649:10 2.79421e-05
63 *625:183 *1548:B 9.20581e-06
64 *625:183 *1566:B 6.05161e-06
65 *625:183 *1632:A1 0.000126929
66 *1553:B *1553:A 0.000144773
67 *1553:B *1555:A 2.05418e-05
68 *1554:B1 *1553:A 0.000335555
69 *1554:B1 *625:10 3.14163e-05
70 *1559:A2 *625:128 0.000177678
71 *1560:A1 *1554:A1 4.08637e-05
72 *1560:A1 *625:39 0.000231382
73 *1560:B1 *625:35 1.97086e-05
74 *1560:B1 *625:39 1.92905e-05
75 *1565:A1 *625:170 0.00018077
76 *1565:A3 *625:170 4.43256e-05
77 *1567:B1 *625:183 0
78 *1570:A1 *625:183 0.000137561
79 *1570:A3 *625:143 1.22103e-05
80 *1570:A3 *625:170 2.7547e-05
81 *1570:B1 *625:183 0
82 *1583:A2 *625:170 0
83 *1584:C1 *625:170 2.28762e-05
84 *1590:A2 *1587:A 6.05161e-06
85 *1600:A2 *625:39 0
86 *1602:A3 *1553:A 4.53889e-05
87 *1605:C *625:139 0.000719222
88 *1605:C *625:170 0.000311745
89 *1621:S *625:43 0
90 *1628:A0 *1587:A 1.04066e-05
91 *1632:A0 *625:183 0
92 *1633:A0 *1572:A 0
93 *1634:A0 *625:128 0.000134514
94 *1634:A0 *625:139 0.000387459
95 *1637:A0 *625:55 0.0001827
96 *1637:A0 *625:65 9.54798e-06
97 *1637:S *625:55 6.05161e-06
98 *1643:RESET_B *625:10 2.55587e-05
99 *1645:RESET_B *1562:A 0.000133515
100 *1646:D *625:143 8.30355e-06
101 *1646:D *625:170 5.33005e-05
102 *1646:D *625:183 1.90111e-05
103 *1646:RESET_B *625:183 0
104 *1648:RESET_B *625:55 4.60059e-06
105 *1651:D *1597:A 4.20528e-05
106 *1665:CLK *625:170 2.42516e-05
107 *1670:D *625:55 2.77173e-05
108 *1670:D *625:65 1.94879e-05
109 *1676:RESET_B *625:183 0
110 *1677:RESET_B *1587:A 0
111 *1681:D *625:183 0
112 *1681:RESET_B *1562:A 5.66157e-05
113 *1681:RESET_B *1566:A 2.59355e-05
114 *1681:RESET_B *625:183 2.29097e-05
115 *1682:RESET_B *1572:A 9.80173e-05
116 *1682:RESET_B *625:82 0.000308053
117 *1684:RESET_B *625:170 2.02828e-05
118 *1686:D *625:55 5.52302e-05
119 *1687:D *1597:A 0.000301703
120 *1687:RESET_B *1597:A 4.9293e-06
121 *1688:CLK *1562:A 0.000180377
122 *1688:RESET_B *1562:A 3.32346e-05
123 *2:120 *625:65 0
124 *2:134 *1597:A 0.000277516
125 *2:185 *625:55 7.79781e-06
126 *2:187 *625:55 1.0946e-05
127 *2:189 *625:55 4.46186e-06
128 *2:240 *625:35 0.000650328
129 *2:269 *1555:A 1.76135e-05
130 *2:276 *1555:A 9.56872e-05
131 *2:532 *1562:A 0.000255
132 *2:572 *1562:A 0.00010959
133 *11:22 *625:170 0.000563309
134 *14:5 *1601:S0 0.000585382
135 *14:5 *625:82 0.000739089
136 *17:11 *625:170 0.000561413
137 *26:5 *1601:S0 0.000587097
138 *36:5 *625:82 0.000290799
139 *50:19 *1562:A 2.59355e-05
140 *80:112 *1587:A 9.41642e-05
141 *83:16 *625:183 0
142 *83:20 *625:170 0.000311023
143 *93:110 *1597:A 0
144 *104:18 *1555:A 0.000346238
145 *104:18 *625:10 0.000128875
146 *104:18 *625:25 4.38265e-05
147 *105:12 *1555:A 3.74872e-05
148 *105:12 *625:10 5.11571e-05
149 *105:12 *625:25 1.12484e-05
150 *111:191 *1597:A 0
151 *112:20 *1555:A 4.60375e-05
152 *112:30 *1555:A 9.60337e-06
153 *113:6 *1553:A 3.98547e-05
154 *505:8 *1553:A 0
155 *580:25 *1562:A 0.000225314
156 *580:36 *1562:A 0.000167012
157 *580:45 *1562:A 5.465e-05
158 *580:64 *1562:A 0.000314867
159 *580:105 *625:128 0
160 *580:105 *625:139 0
161 *580:109 *625:128 0
162 *580:198 *625:82 4.46186e-06
163 *583:18 *1555:A 0.000102911
164 *583:18 *625:35 4.00349e-05
165 *586:22 *625:143 3.63423e-05
166 *586:22 *625:170 1.55885e-05
167 *586:22 *625:183 0.000155269
168 *586:42 *625:170 0
169 *587:32 *625:65 0
170 *588:18 *625:65 0
171 *616:12 *625:43 0
172 *616:12 *625:55 0
*RES
1 *1643:Q *625:10 17.3891 
2 *625:10 *1553:A 21.003 
3 *625:10 *625:25 0.80446 
4 *625:25 *625:35 13.2764 
5 *625:35 *625:39 4.7525 
6 *625:39 *625:41 1.8812 
7 *625:41 *625:43 5.29706 
8 *625:43 *625:55 16.7723 
9 *625:55 *625:65 15.3714 
10 *625:65 *1597:A 23.7629 
11 *625:65 *625:82 23.4481 
12 *625:82 *1572:A 10.6119 
13 *625:82 *1601:S0 19.2723 
14 *1601:S0 *1587:A 14.7084 
15 *625:55 *1577:A 9.3 
16 *625:43 *1592:A 9.3 
17 *625:41 *1558:A 9.3 
18 *625:39 *625:128 10.9852 
19 *625:128 *1557:SLEEP 13.8 
20 *625:128 *625:139 17.7179 
21 *625:139 *625:143 1.33664 
22 *625:143 *1556:A 9.3 
23 *625:143 *625:170 47.1586 
24 *625:170 *1581:A 9.3 
25 *625:139 *625:183 15.1981 
26 *625:183 *1562:A 41.6665 
27 *625:183 *1566:A 12.1961 
28 *625:35 *1554:A1 10.0426 
29 *625:25 *1555:A 36.2035 
*END

*D_NET *626 0.0289489
*CONN
*I *1566:B I *D sky130_fd_sc_hd__and3_1
*I *1555:B I *D sky130_fd_sc_hd__nand2_1
*I *1545:A I *D sky130_fd_sc_hd__clkinv_1
*I *1558:SLEEP I *D sky130_fd_sc_hd__lpflow_isobufsrc_1
*I *1592:B I *D sky130_fd_sc_hd__and3_1
*I *1557:A I *D sky130_fd_sc_hd__lpflow_isobufsrc_1
*I *1556:B I *D sky130_fd_sc_hd__nor2_1
*I *1562:B I *D sky130_fd_sc_hd__nand3_1
*I *1581:B I *D sky130_fd_sc_hd__and3_1
*I *1601:S1 I *D sky130_fd_sc_hd__mux4_2
*I *1572:B I *D sky130_fd_sc_hd__nand3_1
*I *1587:B I *D sky130_fd_sc_hd__nand3_1
*I *1577:B I *D sky130_fd_sc_hd__nand3_1
*I *1597:B I *D sky130_fd_sc_hd__and3_1
*I *1644:Q O *D sky130_fd_sc_hd__dfrtp_1
*CAP
1 *1566:B 0.000243
2 *1555:B 1.69531e-05
3 *1545:A 0
4 *1558:SLEEP 0
5 *1592:B 6.342e-05
6 *1557:A 0
7 *1556:B 2.17109e-05
8 *1562:B 0.000952457
9 *1581:B 2.51744e-05
10 *1601:S1 0
11 *1572:B 0.000327399
12 *1587:B 8.1604e-06
13 *1577:B 2.4081e-05
14 *1597:B 0
15 *1644:Q 0.000598382
16 *626:202 0.000662693
17 *626:115 0.000665451
18 *626:98 0.00179261
19 *626:92 0.00167543
20 *626:90 0.00170713
21 *626:82 0.000969885
22 *626:72 0.0005679
23 *626:58 0.000715471
24 *626:42 0.00110899
25 *626:34 0.000705315
26 *626:26 0.000356403
27 *626:24 0.000316685
28 *626:14 0.00024479
29 *626:10 0.00105687
30 *1556:B *1583:A1 8.14744e-06
31 *1562:B *1601:A0 0
32 *1562:B *1631:A1 5.80706e-06
33 *1562:B *645:10 8.48705e-05
34 *1566:B *1548:A 4.30584e-06
35 *1566:B *1566:C 1.03968e-05
36 *1572:B *1601:A3 4.46186e-06
37 *1572:B *1633:A1 4.88637e-05
38 *1572:B *647:6 3.18676e-05
39 *1572:B *650:12 2.97756e-05
40 *1577:B *1577:C 5.33005e-05
41 *626:10 *627:62 8.6229e-06
42 *626:24 *627:26 0
43 *626:58 *1577:C 3.45052e-05
44 *626:58 *1597:C 1.1169e-05
45 *626:58 *1598:A1 0.0001399
46 *626:82 *1627:A1 0
47 *626:90 *1583:A1 9.60875e-05
48 *626:90 *1625:A1 4.58192e-05
49 *626:98 *1601:A0 0
50 *626:98 *1612:A1 4.58835e-05
51 *626:115 *1601:A0 0.00013182
52 *626:115 *1601:A3 5.41797e-06
53 *626:202 *1548:A 4.1331e-06
54 *626:202 *627:62 0.000293257
55 *626:202 *628:34 7.29542e-05
56 *1123:A *626:82 6.80058e-05
57 *1554:A1 *626:24 1.07719e-05
58 *1554:B1 *626:14 0
59 *1555:A *626:202 4.88515e-05
60 *1559:A2 *626:24 8.40631e-05
61 *1560:A1 *626:14 4.46231e-06
62 *1560:A2 *626:10 1.30731e-05
63 *1560:B1 *626:24 5.52302e-05
64 *1566:A *1566:B 6.71755e-05
65 *1580:A2 *626:58 0.000142856
66 *1583:A2 *1556:B 5.7661e-06
67 *1583:B1 *626:90 2.01525e-05
68 *1585:A1 *626:90 9.60875e-05
69 *1585:B1 *626:82 3.29511e-05
70 *1593:B1 *626:26 6.09658e-05
71 *1594:A *626:58 1.13406e-05
72 *1598:A2 *626:58 0.000360894
73 *1598:B1 *626:58 5.43169e-05
74 *1600:A2 *626:10 0
75 *1600:A2 *626:26 0
76 *1602:A3 *626:14 9.60875e-05
77 *1604:A *1555:B 5.33005e-05
78 *1604:A *1566:B 0.000314622
79 *1604:B *1555:B 5.33005e-05
80 *1604:B *626:202 4.1501e-05
81 *1605:C *626:82 0.000671503
82 *1621:A0 *626:34 0.000246057
83 *1625:A0 *626:90 0.000780429
84 *1628:A0 *1587:B 2.06112e-05
85 *1628:A0 *626:98 0.000393883
86 *1634:A0 *626:10 0
87 *1634:A0 *626:24 0.000150476
88 *1634:S *626:58 0.000741509
89 *1637:A0 *626:42 7.17333e-05
90 *1643:D *626:10 0
91 *1643:RESET_B *626:10 5.50517e-05
92 *1644:D *626:10 0
93 *1644:RESET_B *626:10 8.94203e-05
94 *1646:D *626:82 1.40837e-05
95 *1646:D *626:90 1.57849e-05
96 *1646:RESET_B *1566:B 1.07719e-05
97 *1648:CLK *626:58 0.000192095
98 *1649:RESET_B *626:42 2.32739e-05
99 *1651:D *626:58 0
100 *1653:CLK *626:10 0.000150507
101 *1653:CLK *626:202 0.000214097
102 *1653:D *626:10 8.53624e-05
103 *1655:D *626:202 2.79421e-05
104 *1665:D *626:90 1.01912e-05
105 *1670:D *626:42 5.48376e-05
106 *1670:D *626:58 0
107 *1677:D *1572:B 0
108 *1681:RESET_B *1566:B 9.71532e-05
109 *1682:RESET_B *1572:B 0.000188586
110 *1685:RESET_B *1572:B 0.00014983
111 *1:21 *1562:B 2.70703e-05
112 *2:189 *626:34 0
113 *2:276 *1566:B 0.000232053
114 *2:276 *626:202 0.000126439
115 *2:278 *1566:B 0.000201739
116 *16:15 *1581:B 9.29046e-05
117 *17:11 *626:90 0
118 *26:5 *1572:B 0
119 *35:7 *1581:B 9.29046e-05
120 *36:5 *626:98 0.000163261
121 *49:19 *1562:B 0.000141492
122 *51:24 *1562:B 9.71378e-06
123 *68:250 *626:82 4.5539e-05
124 *80:62 *1572:B 0
125 *80:93 *1572:B 0
126 *80:112 *1587:B 2.06112e-05
127 *80:112 *626:98 3.24989e-05
128 *81:88 *626:58 3.34366e-05
129 *81:97 *626:58 0.000193818
130 *82:48 *626:10 5.16779e-05
131 *83:20 *626:82 0.000122607
132 *83:47 *626:90 0
133 *83:122 *626:202 8.49318e-05
134 *84:57 *1562:B 2.34423e-05
135 *104:18 *626:202 0
136 *108:8 *626:72 0
137 *108:10 *626:34 0.000409747
138 *109:34 *1572:B 0
139 *109:34 *626:115 0.000468827
140 *109:107 *626:42 0
141 *109:107 *626:58 0.000586837
142 *110:14 *626:58 5.16473e-05
143 *111:164 *626:58 2.14658e-05
144 *111:191 *626:58 0.000500525
145 *112:10 *1566:B 9.66073e-06
146 *112:30 *626:10 0
147 *492:28 *626:10 0
148 *579:12 *1562:B 1.5942e-05
149 *580:25 *1566:B 0.000202842
150 *580:64 *1562:B 0.000239845
151 *580:103 *626:90 5.42964e-05
152 *580:105 *626:82 0
153 *580:133 *626:58 2.32625e-05
154 *581:29 *626:14 1.39841e-05
155 *581:29 *626:24 3.67142e-05
156 *582:14 *626:202 4.70048e-05
157 *583:18 *626:202 3.49512e-05
158 *586:22 *1556:B 3.45371e-05
159 *586:22 *626:82 3.47705e-05
160 *587:8 *626:42 0.000174275
161 *587:8 *626:72 0.000141988
162 *587:73 *626:90 0.000235909
163 *588:8 *626:24 3.30352e-05
164 *588:8 *626:26 3.69047e-06
165 *609:28 *1562:B 0.000371696
166 *609:28 *626:92 0.000190168
167 *609:28 *626:98 0.000153477
168 *616:12 *1592:B 4.87669e-06
169 *616:12 *626:26 0
170 *616:12 *626:34 0
171 *618:14 *626:10 0
172 *625:39 *626:24 7.45004e-05
173 *625:41 *626:24 5.52302e-05
174 *625:41 *626:26 8.51331e-05
175 *625:43 *626:26 0.00031194
176 *625:43 *626:34 5.33005e-05
177 *625:55 *626:34 6.31171e-05
178 *625:55 *626:58 1.73088e-05
179 *625:128 *626:24 0.000127297
180 *625:143 *1556:B 1.34959e-05
181 *625:170 *626:90 0.000200698
182 *625:183 *1566:B 6.05161e-06
*RES
1 *1644:Q *626:10 31.1021 
2 *626:10 *626:14 6.3812 
3 *626:14 *626:24 17.1684 
4 *626:24 *626:26 5.29706 
5 *626:26 *626:34 17.0693 
6 *626:34 *626:42 19.8169 
7 *626:42 *626:58 44.322 
8 *626:58 *1597:B 9.3 
9 *626:42 *1577:B 10.0426 
10 *626:34 *626:72 5.29706 
11 *626:72 *626:82 22.2921 
12 *626:82 *626:90 30.4225 
13 *626:90 *626:92 0.680218 
14 *626:92 *626:98 13.5906 
15 *626:98 *1587:B 14.1837 
16 *626:98 *626:115 8.35559 
17 *626:115 *1572:B 25.6812 
18 *626:115 *1601:S1 13.8 
19 *626:92 *1581:B 18.856 
20 *626:90 *1562:B 23.9479 
21 *626:82 *1556:B 10.3149 
22 *626:72 *1557:A 9.3 
23 *626:26 *1592:B 11.3668 
24 *626:24 *1558:SLEEP 9.3 
25 *626:14 *1545:A 9.3 
26 *626:10 *626:202 24.0743 
27 *626:202 *1555:B 14.5426 
28 *626:202 *1566:B 26.2506 
*END

*D_NET *627 0.00718716
*CONN
*I *1546:B I *D sky130_fd_sc_hd__nor2_1
*I *1548:B I *D sky130_fd_sc_hd__or4_1
*I *1550:C_N I *D sky130_fd_sc_hd__nor3b_1
*I *1602:A2 I *D sky130_fd_sc_hd__a32o_1
*I *1552:A1 I *D sky130_fd_sc_hd__a21oi_1
*I *1551:C_N I *D sky130_fd_sc_hd__or3b_1
*I *1606:A2 I *D sky130_fd_sc_hd__a31o_1
*I *1605:B I *D sky130_fd_sc_hd__nor3_1
*I *1603:C1 I *D sky130_fd_sc_hd__o211ai_1
*I *1654:Q O *D sky130_fd_sc_hd__dfrtp_1
*CAP
1 *1546:B 0.000201867
2 *1548:B 0.000136462
3 *1550:C_N 3.90291e-05
4 *1602:A2 2.2163e-05
5 *1552:A1 0.000119919
6 *1551:C_N 0
7 *1606:A2 0
8 *1605:B 0
9 *1603:C1 9.95195e-05
10 *1654:Q 0
11 *627:80 0.000175491
12 *627:62 0.000361612
13 *627:26 0.00022601
14 *627:18 0.000179315
15 *627:16 5.28241e-05
16 *627:14 0.000520643
17 *627:8 0.000473349
18 *627:4 0.000374103
19 *1548:B *1548:A 0.000238379
20 *1550:C_N *1548:A 0.00012603
21 *1552:A1 *1602:A1 0.000180777
22 *1552:A1 *628:12 8.57023e-05
23 *1123:A *1546:B 0
24 *1496:CLK *1546:B 4.25427e-05
25 *1546:A *1546:B 0
26 *1546:A *627:8 5.30637e-06
27 *1554:B1 *627:62 0
28 *1559:A2 *627:26 0
29 *1602:A3 *1552:A1 0.000104523
30 *1602:A3 *627:62 5.33005e-05
31 *1602:B1 *1602:A2 4.37165e-06
32 *1603:A1 *627:14 3.17684e-05
33 *1603:B1 *1603:C1 9.71197e-05
34 *1604:A *1548:B 0.000197842
35 *1604:A *1550:C_N 0.000127678
36 *1604:B *627:18 0.000180501
37 *1605:A *1603:C1 0.000150618
38 *1605:A *627:26 5.52238e-05
39 *1605:C *1603:C1 0
40 *1606:B1 *627:26 0.000106545
41 *1634:A0 *1603:C1 9.89637e-05
42 *1646:RESET_B *1548:B 9.71197e-05
43 *1653:D *627:62 9.89509e-05
44 *1654:D *1546:B 2.8266e-06
45 *1654:D *627:8 0.000158893
46 *1654:D *627:14 0.000129913
47 *1654:RESET_B *1546:B 0
48 *1655:D *627:62 0.000105689
49 *1676:RESET_B *627:14 0
50 *2:276 *1546:B 0
51 *2:278 *1546:B 0
52 *2:339 *627:8 3.80385e-05
53 *83:122 *627:14 0.000146464
54 *83:122 *627:26 1.69115e-05
55 *83:122 *627:62 5.72126e-05
56 *84:8 *1546:B 5.22029e-05
57 *84:23 *627:14 1.05952e-05
58 *84:97 *1546:B 0.000142856
59 *104:18 *1548:B 3.25078e-05
60 *112:10 *1546:B 4.43256e-05
61 *112:93 *627:14 2.87435e-05
62 *112:93 *627:62 1.02504e-05
63 *577:18 *627:8 0.000131655
64 *577:18 *627:14 0.000106442
65 *577:18 *627:18 6.12335e-05
66 *577:20 *627:18 5.52302e-05
67 *580:25 *1548:B 0.000117189
68 *581:20 *1603:C1 1.18064e-05
69 *581:20 *627:26 0.00017309
70 *581:29 *1552:A1 5.74499e-06
71 *581:29 *627:26 0
72 *581:29 *627:62 1.21258e-05
73 *582:14 *627:14 2.31123e-05
74 *582:14 *627:62 1.81805e-05
75 *618:14 *627:62 6.20421e-05
76 *623:6 *1603:C1 5.52238e-05
77 *625:183 *1548:B 9.20581e-06
78 *626:10 *627:62 8.6229e-06
79 *626:24 *627:26 0
80 *626:202 *627:62 0.000293257
*RES
1 *1654:Q *627:4 9.3 
2 *627:4 *627:8 6.88122 
3 *627:8 *627:14 13.6337 
4 *627:14 *627:16 4.5 
5 *627:16 *627:18 2.45051 
6 *627:18 *627:26 14 
7 *627:26 *1603:C1 22.7307 
8 *627:26 *1605:B 9.3 
9 *627:18 *1606:A2 9.3 
10 *627:16 *1551:C_N 9.3 
11 *627:14 *627:62 13.8812 
12 *627:62 *1552:A1 14.0525 
13 *627:62 *1602:A2 9.89406 
14 *627:8 *627:80 4.5 
15 *627:80 *1550:C_N 16.0772 
16 *627:80 *1548:B 20.7555 
17 *627:4 *1546:B 24.8594 
*END

*D_NET *628 0.00429827
*CONN
*I *1544:A I *D sky130_fd_sc_hd__clkinv_1
*I *1548:A I *D sky130_fd_sc_hd__or4_1
*I *1551:A I *D sky130_fd_sc_hd__or3b_1
*I *1550:A I *D sky130_fd_sc_hd__nor3b_1
*I *1552:B1 I *D sky130_fd_sc_hd__a21oi_1
*I *1602:A1 I *D sky130_fd_sc_hd__a32o_1
*I *1655:Q O *D sky130_fd_sc_hd__dfrtp_1
*CAP
1 *1544:A 4.25127e-05
2 *1548:A 0.000152294
3 *1551:A 0.000129157
4 *1550:A 0
5 *1552:B1 0
6 *1602:A1 5.50773e-05
7 *1655:Q 0
8 *628:36 0.000129157
9 *628:34 0.000308014
10 *628:28 0.000236203
11 *628:12 0.000380814
12 *628:6 0.000363707
13 *1548:B *1548:A 0.000238379
14 *1550:B *1551:A 5.33005e-05
15 *1550:C_N *1548:A 0.00012603
16 *1552:A1 *1602:A1 0.000180777
17 *1552:A1 *628:12 8.57023e-05
18 *1552:A2 *628:12 9.60875e-05
19 *1553:B *1602:A1 9.87421e-06
20 *1553:B *628:12 7.13232e-05
21 *1555:A *628:12 4.58192e-05
22 *1555:A *628:28 4.00025e-05
23 *1555:A *628:34 0
24 *1566:B *1548:A 4.30584e-06
25 *1602:A3 *628:12 2.97829e-05
26 *1602:B1 *1602:A1 2.24101e-05
27 *1602:B2 *1602:A1 2.89114e-05
28 *1602:B2 *628:12 4.72917e-05
29 *1604:A *1544:A 1.92905e-05
30 *1604:A *628:34 1.39726e-05
31 *1604:B *1551:A 1.98839e-05
32 *1604:B *628:34 0.000309273
33 *2:269 *628:12 0
34 *84:23 *1548:A 4.00276e-06
35 *104:18 *1548:A 0.000377183
36 *104:18 *628:34 5.58941e-05
37 *112:10 *1548:A 5.33005e-05
38 *112:93 *1551:A 0.000219711
39 *113:6 *628:12 5.70688e-05
40 *577:18 *1544:A 1.32552e-05
41 *577:18 *1551:A 0.00012728
42 *581:16 *1551:A 5.52238e-05
43 *581:29 *1602:A1 1.89115e-05
44 *626:202 *1548:A 4.1331e-06
45 *626:202 *628:34 7.29542e-05
*RES
1 *1655:Q *628:6 13.8 
2 *628:6 *628:12 15.5892 
3 *628:12 *1602:A1 11.7505 
4 *628:12 *1552:B1 9.3 
5 *628:6 *628:28 5.93565 
6 *628:28 *628:34 10.2426 
7 *628:34 *628:36 4.5 
8 *628:36 *1550:A 9.3 
9 *628:36 *1551:A 14.0525 
10 *628:34 *1548:A 21.4486 
11 *628:28 *1544:A 10.6119 
*END

*D_NET *629 0.00257207
*CONN
*I *1607:A1 I *D sky130_fd_sc_hd__mux2_1
*I *1561:A I *D sky130_fd_sc_hd__nand2_1
*I *1656:Q O *D sky130_fd_sc_hd__dfrtp_1
*CAP
1 *1607:A1 9.88528e-05
2 *1561:A 0.000357992
3 *1656:Q 0.000257889
4 *629:8 0.000714734
5 *1561:A *1608:A1 1.7259e-05
6 *1561:A *640:6 1.88619e-05
7 *629:8 *640:6 0
8 *629:8 *645:10 3.81416e-06
9 *1547:A *1607:A1 7.43578e-06
10 *1561:B *1561:A 0
11 *1565:A2 *629:8 0
12 *1639:S *629:8 1.92905e-05
13 *1656:CLK *1561:A 0
14 *1657:D *1561:A 6.22567e-05
15 *1657:RESET_B *629:8 6.03035e-05
16 *1665:CLK *1561:A 0
17 *1665:RESET_B *1561:A 9.94845e-05
18 *1665:RESET_B *629:8 8.79458e-05
19 *12:17 *1607:A1 5.33005e-05
20 *44:23 *1561:A 8.15095e-05
21 *44:23 *1607:A1 0.000247622
22 *49:19 *1561:A 4.58192e-05
23 *49:19 *1607:A1 0.00012917
24 *50:19 *1607:A1 1.02936e-05
25 *84:57 *629:8 4.884e-05
26 *579:12 *629:8 0
27 *580:74 *629:8 0
28 *580:78 *1607:A1 9.60939e-05
29 *580:78 *629:8 0
30 *586:32 *1561:A 5.33005e-05
*RES
1 *1656:Q *629:8 21.3743 
2 *629:8 *1561:A 24.5674 
3 *629:8 *1607:A1 19.4931 
*END

*D_NET *630 0.00232412
*CONN
*I *1617:A1 I *D sky130_fd_sc_hd__mux2_1
*I *1574:B2 I *D sky130_fd_sc_hd__a221oi_1
*I *1666:Q O *D sky130_fd_sc_hd__dfrtp_1
*CAP
1 *1617:A1 7.98404e-05
2 *1574:B2 0.000311641
3 *1666:Q 0.000229729
4 *630:12 0.00062121
5 *1582:A *630:12 6.89831e-05
6 *1585:B1 *630:12 0
7 *1589:B1 *1574:B2 5.90455e-05
8 *1637:A0 *630:12 0
9 *1649:D *630:12 4.43256e-05
10 *1666:RESET_B *630:12 4.57695e-05
11 *1674:D *1617:A1 0.000105689
12 *2:623 *630:12 2.44318e-05
13 *35:7 *1617:A1 4.28286e-05
14 *35:7 *630:12 6.48403e-05
15 *83:47 *1574:B2 9.33978e-07
16 *83:49 *1574:B2 9.20581e-06
17 *83:55 *1574:B2 1.01403e-05
18 *83:75 *630:12 0.000127169
19 *108:180 *630:12 0.000139907
20 *109:107 *1617:A1 6.69273e-05
21 *109:107 *630:12 4.22491e-05
22 *581:83 *1574:B2 0
23 *588:51 *1574:B2 6.10748e-05
24 *588:85 *1574:B2 0.000168177
*RES
1 *1666:Q *630:12 23.6268 
2 *630:12 *1574:B2 21.8446 
3 *630:12 *1617:A1 17.3396 
*END

*D_NET *631 0.00453772
*CONN
*I *1579:B2 I *D sky130_fd_sc_hd__a221oi_1
*I *1618:A1 I *D sky130_fd_sc_hd__mux2_1
*I *1667:Q O *D sky130_fd_sc_hd__dfrtp_1
*CAP
1 *1579:B2 0.000536978
2 *1618:A1 0
3 *1667:Q 0.000244623
4 *631:14 0.000781601
5 *1579:B2 *1579:A1 0.00037906
6 *1579:B2 *1613:A1 9.71197e-05
7 *1579:B2 *1626:A1 0.000181803
8 *1579:B2 *1629:A1 0.000126572
9 *631:14 *1629:A1 0.000183726
10 *1597:A *631:14 1.7897e-05
11 *1613:A0 *1579:B2 0.000335605
12 *1618:A0 *631:14 9.80173e-05
13 *1626:A0 *1579:B2 0.0001827
14 *1649:RESET_B *1579:B2 1.88214e-05
15 *1659:CLK *1579:B2 0
16 *1659:D *1579:B2 1.61354e-05
17 *1659:RESET_B *1579:B2 0
18 *1667:D *631:14 0.000359641
19 *1687:D *631:14 0.000202842
20 *2:134 *631:14 9.99644e-06
21 *271:16 *631:14 2.27416e-05
22 *580:139 *1579:B2 0.000197603
23 *580:141 *1579:B2 4.43256e-05
24 *580:143 *1579:B2 0.000167998
25 *580:145 *1579:B2 1.98839e-05
26 *588:47 *1579:B2 0.000172789
27 *625:82 *631:14 0.00013924
*RES
1 *1667:Q *631:14 30.0822 
2 *631:14 *1618:A1 9.3 
3 *631:14 *1579:B2 32.0971 
*END

*D_NET *632 0.00242019
*CONN
*I *1584:B2 I *D sky130_fd_sc_hd__a221oi_1
*I *1619:A1 I *D sky130_fd_sc_hd__mux2_1
*I *1668:Q O *D sky130_fd_sc_hd__dfrtp_1
*CAP
1 *1584:B2 0.000338714
2 *1619:A1 2.57821e-05
3 *1668:Q 4.12955e-05
4 *632:10 0.000405792
5 *1584:B2 *1584:A1 0.000119967
6 *1584:B2 *1611:A1 2.05612e-05
7 *1586:B *1619:A1 0
8 *1611:A0 *1584:B2 0.000309266
9 *1615:S *632:10 0.000132297
10 *9:11 *632:10 0.00010127
11 *39:17 *1584:B2 8.43535e-06
12 *39:17 *1619:A1 1.92789e-05
13 *50:11 *1584:B2 0.000180433
14 *50:11 *1619:A1 2.51343e-06
15 *580:307 *1584:B2 2.14658e-05
16 *580:318 *1584:B2 0.000645043
17 *580:339 *632:10 4.80729e-05
*RES
1 *1668:Q *632:10 21.4188 
2 *632:10 *1619:A1 10.0426 
3 *632:10 *1584:B2 23.7308 
*END

*D_NET *633 0.00228171
*CONN
*I *1620:A1 I *D sky130_fd_sc_hd__mux2_1
*I *1589:B2 I *D sky130_fd_sc_hd__a221oi_1
*I *1669:Q O *D sky130_fd_sc_hd__dfrtp_1
*CAP
1 *1620:A1 6.83509e-05
2 *1589:B2 0.000401313
3 *1669:Q 0
4 *633:4 0.000469664
5 *1589:B2 *1589:A1 4.10886e-05
6 *1589:A2 *1589:B2 0.000374459
7 *1589:B1 *1589:B2 0.000142997
8 *1590:A3 *1589:B2 0
9 *1684:CLK *1620:A1 0.000111394
10 *105:194 *1589:B2 7.49387e-06
11 *105:200 *1589:B2 0.000101046
12 *109:14 *1589:B2 1.58163e-05
13 *109:103 *1589:B2 0.00023839
14 *109:103 *1620:A1 1.39726e-05
15 *580:289 *1620:A1 0.0002042
16 *587:63 *1589:B2 6.26276e-05
17 *587:63 *1620:A1 2.89016e-05
*RES
1 *1669:Q *633:4 9.3 
2 *633:4 *1589:B2 25.4882 
3 *633:4 *1620:A1 22.5822 
*END

*D_NET *634 0.00171394
*CONN
*I *1621:A1 I *D sky130_fd_sc_hd__mux2_1
*I *1593:A1 I *D sky130_fd_sc_hd__a21oi_1
*I *1670:Q O *D sky130_fd_sc_hd__dfrtp_1
*CAP
1 *1621:A1 0.000153927
2 *1593:A1 7.68016e-05
3 *1670:Q 0.00026056
4 *634:10 0.000491289
5 *1593:A1 *1634:A1 0
6 *1593:A1 *652:14 3.69047e-06
7 *1621:A1 *652:14 0.000234024
8 *634:10 *652:14 7.98175e-05
9 *1559:A2 *1621:A1 0
10 *1593:B1 *1621:A1 0.000126439
11 *1593:B1 *634:10 3.22304e-05
12 *1600:A2 *1593:A1 0.000119482
13 *1634:A0 *634:10 0
14 *1634:S *634:10 1.92905e-05
15 *1643:CLK *634:10 0
16 *2:201 *634:10 5.92419e-05
17 *108:10 *1621:A1 0
18 *108:10 *634:10 0
19 *492:28 *634:10 5.71472e-05
*RES
1 *1670:Q *634:10 20.607 
2 *634:10 *1593:A1 16.2753 
3 *634:10 *1621:A1 19.4436 
*END

*D_NET *635 0.0010733
*CONN
*I *1598:A1 I *D sky130_fd_sc_hd__a21oi_1
*I *1622:A1 I *D sky130_fd_sc_hd__mux2_1
*I *1671:Q O *D sky130_fd_sc_hd__dfrtp_1
*CAP
1 *1598:A1 4.65365e-05
2 *1622:A1 0.000133592
3 *1671:Q 0
4 *635:4 0.000180128
5 *1591:A2 *1622:A1 0.000136958
6 *1598:A2 *1598:A1 3.57366e-05
7 *1598:B1 *1622:A1 5.75147e-05
8 *1600:A3 *1622:A1 7.02772e-05
9 *1622:A0 *1622:A1 2.14658e-05
10 *1634:S *1622:A1 8.25644e-05
11 *106:115 *1622:A1 4.12023e-05
12 *111:191 *1598:A1 0.000127427
13 *626:58 *1598:A1 0.0001399
*RES
1 *1671:Q *635:4 9.3 
2 *635:4 *1622:A1 23.4485 
3 *635:4 *1598:A1 11.7753 
*END

*D_NET *636 0.00164881
*CONN
*I *1564:A1 I *D sky130_fd_sc_hd__a221oi_1
*I *1623:A1 I *D sky130_fd_sc_hd__mux2_1
*I *1672:Q O *D sky130_fd_sc_hd__dfrtp_1
*CAP
1 *1564:A1 0.000266028
2 *1623:A1 7.91183e-05
3 *1672:Q 5.94353e-05
4 *636:6 0.000404582
5 *1564:A1 *1564:B2 1.24368e-05
6 *636:6 *1564:B2 1.65169e-05
7 *1564:A2 *1564:A1 1.89507e-06
8 *1568:B1 *1564:A1 5.52302e-05
9 *1584:B1 *1564:A1 5.52238e-05
10 *1623:A0 *1623:A1 6.05161e-06
11 *1623:S *1623:A1 1.21258e-05
12 *1684:CLK *1623:A1 5.83304e-05
13 *1684:D *1623:A1 1.856e-05
14 *1684:RESET_B *1564:A1 4.77607e-05
15 *1684:RESET_B *1623:A1 1.92905e-05
16 *1684:RESET_B *636:6 7.07155e-06
17 *11:22 *1623:A1 3.79197e-05
18 *16:15 *1564:A1 0.000189776
19 *16:15 *636:6 3.69047e-06
20 *17:11 *1564:A1 0
21 *35:7 *1564:A1 0.000146133
22 *580:297 *1623:A1 8.13599e-05
23 *586:42 *1564:A1 0
24 *609:28 *1623:A1 7.02772e-05
*RES
1 *1672:Q *636:6 10.6119 
2 *636:6 *1623:A1 22.5822 
3 *636:6 *1564:A1 26.4684 
*END

*D_NET *637 0.00584514
*CONN
*I *1567:A1 I *D sky130_fd_sc_hd__a21oi_1
*I *1624:A1 I *D sky130_fd_sc_hd__mux2_1
*I *1673:Q O *D sky130_fd_sc_hd__dfrtp_1
*CAP
1 *1567:A1 0
2 *1624:A1 5.84743e-05
3 *1673:Q 0.000110932
4 *637:33 0.00100268
5 *637:10 0.00117208
6 *637:10 *651:14 1.31516e-05
7 *637:33 *1574:A1 7.627e-05
8 *637:33 *638:6 9.00795e-06
9 *1567:B1 *637:33 9.41642e-05
10 *1575:A2 *637:10 0.000103974
11 *1583:B1 *637:33 0
12 *1588:B *637:10 0
13 *1589:B1 *637:33 7.28584e-05
14 *1617:A0 *637:33 5.71472e-05
15 *1625:A0 *637:33 0.000183713
16 *1633:A0 *1624:A1 2.47753e-05
17 *1633:A0 *637:33 0.000139907
18 *1646:D *637:33 1.84127e-05
19 *1647:CLK *637:10 0.000196269
20 *1647:CLK *637:33 7.39741e-05
21 *1650:RESET_B *637:33 0.00013324
22 *1658:D *637:10 2.79421e-05
23 *1666:D *637:33 0.000219711
24 *1674:D *637:33 7.66462e-05
25 *20:13 *1624:A1 0.000135028
26 *20:13 *637:10 3.17148e-05
27 *20:13 *637:33 8.97679e-05
28 *30:13 *637:33 0.000190664
29 *34:9 *637:33 0.000160291
30 *105:194 *637:33 0.000647106
31 *106:26 *637:10 9.60939e-05
32 *580:192 *637:33 2.441e-05
33 *580:279 *637:33 0.000125547
34 *580:281 *637:33 0.000382538
35 *580:289 *637:33 9.66517e-05
36 *587:73 *637:33 0
*RES
1 *1673:Q *637:10 18.6515 
2 *637:10 *1624:A1 15.6812 
3 *637:10 *637:33 44.0794 
4 *637:33 *1567:A1 9.3 
*END

*D_NET *638 0.00159617
*CONN
*I *1625:A1 I *D sky130_fd_sc_hd__mux2_1
*I *1574:A1 I *D sky130_fd_sc_hd__a221oi_1
*I *1674:Q O *D sky130_fd_sc_hd__dfrtp_1
*CAP
1 *1625:A1 2.27504e-05
2 *1574:A1 0.000328525
3 *1674:Q 8.43083e-05
4 *638:6 0.000435584
5 *1583:B1 *638:6 2.59355e-05
6 *1589:B1 *1574:A1 1.04232e-05
7 *1625:A0 *1574:A1 1.40306e-05
8 *1625:A0 *638:6 3.5566e-05
9 *1666:D *1574:A1 4.35306e-05
10 *1674:D *1574:A1 0.000185289
11 *17:11 *1625:A1 4.58192e-05
12 *83:47 *1574:A1 0
13 *587:73 *1574:A1 4.88515e-05
14 *587:73 *638:6 5.72899e-05
15 *588:51 *1574:A1 3.69047e-06
16 *588:85 *1574:A1 0.000123479
17 *626:90 *1625:A1 4.58192e-05
18 *637:33 *1574:A1 7.627e-05
19 *637:33 *638:6 9.00795e-06
*RES
1 *1674:Q *638:6 12.3198 
2 *638:6 *1574:A1 19.7456 
3 *638:6 *1625:A1 19.7357 
*END

*D_NET *639 0.00213261
*CONN
*I *1579:A1 I *D sky130_fd_sc_hd__a221oi_1
*I *1626:A1 I *D sky130_fd_sc_hd__mux2_1
*I *1675:Q O *D sky130_fd_sc_hd__dfrtp_1
*CAP
1 *1579:A1 0.000169141
2 *1626:A1 4.76173e-05
3 *1675:Q 5.4367e-05
4 *639:10 0.000271125
5 *1579:A2 *1579:A1 3.57366e-05
6 *1579:B1 *1579:A1 5.52238e-05
7 *1579:B2 *1579:A1 0.00037906
8 *1579:B2 *1626:A1 0.000181803
9 *1580:A3 *1579:A1 1.54142e-05
10 *1580:A3 *639:10 8.49318e-05
11 *1610:S *1579:A1 9.41642e-05
12 *1613:A0 *1579:A1 2.87584e-05
13 *1649:RESET_B *1579:A1 0
14 *18:13 *639:10 8.15843e-05
15 *106:113 *639:10 2.1527e-05
16 *580:135 *1579:A1 0.000169359
17 *580:135 *1626:A1 9.71197e-05
18 *580:137 *1626:A1 5.33005e-05
19 *580:139 *1626:A1 5.33005e-05
20 *587:12 *1579:A1 0.000224596
21 *588:47 *1579:A1 1.44832e-05
*RES
1 *1675:Q *639:10 20.998 
2 *639:10 *1626:A1 11.7505 
3 *639:10 *1579:A1 18.2357 
*END

*D_NET *640 0.00189137
*CONN
*I *1568:A1 I *D sky130_fd_sc_hd__a22oi_1
*I *1608:A1 I *D sky130_fd_sc_hd__mux2_1
*I *1657:Q O *D sky130_fd_sc_hd__dfrtp_1
*CAP
1 *1568:A1 0.000109879
2 *1608:A1 0.000214835
3 *1657:Q 0.000192035
4 *640:6 0.000516748
5 *1568:A1 *1596:B2 0
6 *1561:A *1608:A1 1.7259e-05
7 *1561:A *640:6 1.88619e-05
8 *1570:A3 *1608:A1 1.10856e-05
9 *1596:A2 *640:6 2.60993e-05
10 *1614:A0 *1568:A1 4.7312e-05
11 *1657:D *1608:A1 5.51805e-05
12 *1663:D *640:6 1.92905e-05
13 *44:23 *640:6 0.000225815
14 *51:24 *1568:A1 2.09826e-05
15 *83:20 *1608:A1 0.000148577
16 *84:47 *1568:A1 0
17 *580:95 *1608:A1 0.000125461
18 *586:22 *1568:A1 5.66157e-05
19 *586:32 *1608:A1 5.70716e-05
20 *586:132 *1608:A1 1.07719e-05
21 *586:132 *640:6 9.65505e-06
22 *618:14 *640:6 7.83515e-06
23 *629:8 *640:6 0
*RES
1 *1657:Q *640:6 15.7357 
2 *640:6 *1608:A1 25.1565 
3 *640:6 *1568:A1 20.998 
*END

*D_NET *641 0.00154535
*CONN
*I *1583:A1 I *D sky130_fd_sc_hd__a21oi_1
*I *1627:A1 I *D sky130_fd_sc_hd__mux2_1
*I *1676:Q O *D sky130_fd_sc_hd__dfrtp_1
*CAP
1 *1583:A1 8.86152e-05
2 *1627:A1 0.000219509
3 *1676:Q 0
4 *641:6 0.000308124
5 *1556:B *1583:A1 8.14744e-06
6 *1583:A2 *1583:A1 1.04232e-05
7 *1585:B1 *1627:A1 6.76124e-05
8 *1646:D *1583:A1 0.000112039
9 *1646:D *1627:A1 9.54798e-06
10 *1649:D *1627:A1 4.62969e-05
11 *24:9 *1627:A1 0.0003114
12 *83:20 *1583:A1 0.000121587
13 *83:20 *1627:A1 5.14853e-05
14 *108:180 *1627:A1 3.69047e-06
15 *580:103 *1627:A1 6.8646e-06
16 *587:73 *1583:A1 6.40409e-05
17 *587:94 *1583:A1 1.98839e-05
18 *626:82 *1627:A1 0
19 *626:90 *1583:A1 9.60875e-05
*RES
1 *1676:Q *641:6 13.8 
2 *641:6 *1627:A1 21.6961 
3 *641:6 *1583:A1 17.9832 
*END

*D_NET *642 0.00192321
*CONN
*I *1589:A1 I *D sky130_fd_sc_hd__a221oi_1
*I *1628:A1 I *D sky130_fd_sc_hd__mux2_1
*I *1677:Q O *D sky130_fd_sc_hd__dfrtp_1
*CAP
1 *1589:A1 0.000246039
2 *1628:A1 2.56488e-05
3 *1677:Q 0.000161077
4 *642:12 0.000432765
5 *642:12 *1601:A0 6.05143e-05
6 *1587:A *642:12 4.00276e-06
7 *1589:B1 *1589:A1 5.71472e-05
8 *1589:B2 *1589:A1 4.10886e-05
9 *1589:C1 *1589:A1 5.38072e-05
10 *1590:A2 *1589:A1 2.15245e-05
11 *1590:A3 *1589:A1 0.000137109
12 *1590:B1 *1589:A1 9.20581e-06
13 *1628:A0 *1589:A1 0.00018077
14 *1628:A0 *1628:A1 5.33005e-05
15 *1677:RESET_B *642:12 2.51343e-06
16 *2:36 *642:12 1.97865e-05
17 *14:5 *642:12 2.50938e-05
18 *36:5 *642:12 0.000288101
19 *80:112 *1589:A1 0
20 *80:112 *642:12 9.33978e-07
21 *105:200 *1589:A1 0
22 *105:200 *1628:A1 0
23 *622:14 *642:12 0.000102779
*RES
1 *1677:Q *642:12 24.8347 
2 *642:12 *1628:A1 10.0426 
3 *642:12 *1589:A1 18.0129 
*END

*D_NET *643 0.00307862
*CONN
*I *1591:B2 I *D sky130_fd_sc_hd__a22oi_1
*I *1629:A1 I *D sky130_fd_sc_hd__mux2_1
*I *1678:Q O *D sky130_fd_sc_hd__dfrtp_1
*CAP
1 *1591:B2 0.000327015
2 *1629:A1 0.000196496
3 *1678:Q 0.000172752
4 *643:8 0.000696264
5 *1591:B2 *1591:A1 9.26993e-05
6 *1591:B2 *1638:A1 0
7 *1549:A *1629:A1 0.00010096
8 *1579:B2 *1629:A1 0.000126572
9 *1595:A1 *1591:B2 4.57445e-05
10 *1629:A0 *1629:A1 0.000105163
11 *1638:S *1629:A1 0.000182792
12 *1662:D *1591:B2 0.000131929
13 *2:120 *1591:B2 4.19624e-06
14 *36:5 *1629:A1 0.000125103
15 *93:62 *1591:B2 2.65105e-05
16 *93:62 *643:8 7.85933e-05
17 *93:68 *1591:B2 0
18 *93:110 *1591:B2 9.00795e-06
19 *93:110 *1629:A1 0
20 *580:143 *1591:B2 0
21 *580:145 *1591:B2 0
22 *580:145 *1629:A1 5.52238e-05
23 *580:145 *643:8 0
24 *580:147 *1629:A1 0.000398822
25 *580:147 *643:8 0
26 *581:97 *1591:B2 0
27 *587:32 *1591:B2 1.90431e-05
28 *631:14 *1629:A1 0.000183726
*RES
1 *1678:Q *643:8 14.0525 
2 *643:8 *1629:A1 29.6862 
3 *643:8 *1591:B2 28.7951 
*END

*D_NET *644 0.00361873
*CONN
*I *1630:A1 I *D sky130_fd_sc_hd__mux2_1
*I *1596:B2 I *D sky130_fd_sc_hd__a22oi_1
*I *1679:Q O *D sky130_fd_sc_hd__dfrtp_1
*CAP
1 *1630:A1 0.000490706
2 *1596:B2 0.000543835
3 *1679:Q 0.000171219
4 *644:6 0.00120576
5 *1596:B2 *1601:A0 0.000426599
6 *1568:A1 *1596:B2 0
7 *1596:A2 *1596:B2 5.52238e-05
8 *1596:B1 *1596:B2 5.71472e-05
9 *1645:RESET_B *1596:B2 1.0334e-05
10 *1679:CLK *1630:A1 0
11 *1679:D *1630:A1 0
12 *1679:RESET_B *644:6 0.000138106
13 *1680:D *1630:A1 0.000187902
14 *1688:D *1630:A1 0
15 *2:523 *1596:B2 0.000140933
16 *2:523 *644:6 0.000136189
17 *2:532 *1596:B2 4.65158e-06
18 *11:14 *1596:B2 0
19 *11:14 *644:6 0
20 *84:47 *1596:B2 4.19624e-06
21 *586:22 *1596:B2 0
22 *622:14 *1596:B2 4.5927e-05
*RES
1 *1679:Q *644:6 17.4436 
2 *644:6 *1596:B2 30.3197 
3 *644:6 *1630:A1 32.3595 
*END

*D_NET *645 0.00207492
*CONN
*I *1631:A1 I *D sky130_fd_sc_hd__mux2_1
*I *1562:C I *D sky130_fd_sc_hd__nand3_1
*I *1680:Q O *D sky130_fd_sc_hd__dfrtp_1
*CAP
1 *1631:A1 6.98838e-05
2 *1562:C 0
3 *1680:Q 0.000603186
4 *645:10 0.00067307
5 *1562:B *1631:A1 5.80706e-06
6 *1562:B *645:10 8.48705e-05
7 *1565:A2 *645:10 2.18393e-05
8 *1630:A0 *1631:A1 9.90431e-05
9 *1639:S *645:10 0
10 *1680:RESET_B *645:10 9.23148e-05
11 *1688:D *645:10 5.17416e-05
12 *1688:RESET_B *645:10 0
13 *8:13 *1631:A1 4.38511e-05
14 *8:13 *645:10 4.1331e-06
15 *50:19 *1631:A1 3.67257e-05
16 *50:19 *645:10 1.92905e-05
17 *84:57 *645:10 8.85532e-05
18 *84:72 *645:10 4.87953e-05
19 *579:12 *645:10 8.32171e-05
20 *580:64 *1631:A1 4.47843e-05
21 *580:74 *645:10 0
22 *629:8 *645:10 3.81416e-06
*RES
1 *1680:Q *645:10 31.4734 
2 *645:10 *1562:C 13.8 
3 *645:10 *1631:A1 17.3891 
*END

*D_NET *646 0.00113281
*CONN
*I *1566:C I *D sky130_fd_sc_hd__and3_1
*I *1632:A1 I *D sky130_fd_sc_hd__mux2_1
*I *1681:Q O *D sky130_fd_sc_hd__dfrtp_1
*CAP
1 *1566:C 3.96794e-05
2 *1632:A1 0.000228851
3 *1681:Q 0
4 *646:4 0.00026853
5 *1566:A *1566:C 1.74352e-05
6 *1566:A *1632:A1 1.56e-05
7 *1566:B *1566:C 1.03968e-05
8 *1567:B1 *1566:C 4.61051e-05
9 *1567:B1 *1632:A1 0.000124893
10 *1681:RESET_B *1632:A1 8.79458e-05
11 *84:34 *1632:A1 8.32171e-05
12 *618:14 *1632:A1 8.32242e-05
13 *625:183 *1632:A1 0.000126929
*RES
1 *1681:Q *646:4 9.3 
2 *646:4 *1632:A1 26.7406 
3 *646:4 *1566:C 11.2802 
*END

*D_NET *647 0.000353784
*CONN
*I *1633:A1 I *D sky130_fd_sc_hd__mux2_1
*I *1572:C I *D sky130_fd_sc_hd__nand3_1
*I *1682:Q O *D sky130_fd_sc_hd__dfrtp_1
*CAP
1 *1633:A1 6.28399e-05
2 *1572:C 2.23854e-05
3 *1682:Q 1.53864e-05
4 *647:6 0.000100612
5 *1572:B *1633:A1 4.88637e-05
6 *1572:B *647:6 3.18676e-05
7 *1633:A0 *1633:A1 1.40306e-05
8 *26:5 *1633:A1 4.58192e-05
9 *80:93 *1633:A1 5.19842e-06
10 *80:93 *647:6 6.78055e-06
*RES
1 *1682:Q *647:6 10.0426 
2 *647:6 *1572:C 9.89406 
3 *647:6 *1633:A1 21.0475 
*END

*D_NET *648 0.0026099
*CONN
*I *1634:A1 I *D sky130_fd_sc_hd__mux2_1
*I *1577:C I *D sky130_fd_sc_hd__nand3_1
*I *1683:Q O *D sky130_fd_sc_hd__dfrtp_1
*CAP
1 *1634:A1 0.000137552
2 *1577:C 0.00048002
3 *1683:Q 0
4 *648:4 0.000617572
5 *1577:C *1576:A 0
6 *1577:C *652:14 1.92789e-05
7 *1577:B *1577:C 5.33005e-05
8 *1578:A *1577:C 8.02709e-05
9 *1593:A1 *1634:A1 0
10 *1600:A2 *1577:C 0
11 *1600:A2 *1634:A1 0
12 *1634:A0 *1634:A1 3.18676e-05
13 *1634:S *1634:A1 8.51605e-05
14 *1637:A0 *1577:C 8.50152e-05
15 *1670:D *1577:C 0.000181787
16 *1683:D *1577:C 0.000208918
17 *1683:D *1634:A1 9.87672e-05
18 *1686:D *1577:C 0.000201592
19 *2:185 *1577:C 7.45329e-05
20 *2:187 *1577:C 1.09232e-05
21 *2:189 *1577:C 0.000100008
22 *2:191 *1577:C 3.66602e-05
23 *580:133 *1577:C 4.27338e-05
24 *625:55 *1577:C 2.44318e-05
25 *625:65 *1577:C 5.00087e-06
26 *626:58 *1577:C 3.45052e-05
*RES
1 *1683:Q *648:4 9.3 
2 *648:4 *1577:C 38.9189 
3 *648:4 *1634:A1 14.4733 
*END

*D_NET *649 0.00168868
*CONN
*I *1635:A1 I *D sky130_fd_sc_hd__mux2_1
*I *1581:C I *D sky130_fd_sc_hd__and3_1
*I *1684:Q O *D sky130_fd_sc_hd__dfrtp_1
*CAP
1 *1635:A1 0.00010886
2 *1581:C 5.06738e-05
3 *1684:Q 0.000199814
4 *649:10 0.000359349
5 *1584:C1 *1581:C 2.53403e-05
6 *1635:A0 *1635:A1 1.92905e-05
7 *1665:CLK *1581:C 6.05161e-06
8 *1665:CLK *1635:A1 0
9 *1665:CLK *649:10 0
10 *17:11 *1635:A1 0.000225606
11 *17:11 *649:10 0.000100061
12 *586:42 *1635:A1 0.000218697
13 *586:42 *649:10 0.000225282
14 *625:170 *1581:C 0.000121712
15 *625:170 *649:10 2.79421e-05
*RES
1 *1684:Q *649:10 20.3842 
2 *649:10 *1581:C 15.4832 
3 *649:10 *1635:A1 19.0723 
*END

*D_NET *650 0.00218048
*CONN
*I *1587:C I *D sky130_fd_sc_hd__nand3_1
*I *1636:A1 I *D sky130_fd_sc_hd__mux2_1
*I *1685:Q O *D sky130_fd_sc_hd__dfrtp_1
*CAP
1 *1587:C 0.000324655
2 *1636:A1 0.000223955
3 *1685:Q 4.86204e-05
4 *650:12 0.00059723
5 *1587:C *1601:A0 5.33005e-05
6 *1587:C *1601:A1 0.000133045
7 *1587:C *1601:A3 5.71472e-05
8 *1636:A1 *1601:A1 0.000267377
9 *1636:A1 *1601:A2 5.52302e-05
10 *650:12 *1601:A2 9.76823e-06
11 *1572:B *650:12 2.97756e-05
12 *1587:A *1587:C 0.000113388
13 *1628:A0 *1587:C 2.65133e-05
14 *1636:A0 *1636:A1 3.48705e-05
15 *1636:S *1636:A1 0.000146591
16 *1677:D *1587:C 0
17 *1685:RESET_B *1636:A1 0
18 *1685:RESET_B *650:12 2.89016e-05
19 *80:62 *650:12 3.01126e-05
20 *109:34 *1587:C 0
21 *109:34 *1636:A1 0
*RES
1 *1685:Q *650:12 20.4782 
2 *650:12 *1636:A1 18.0377 
3 *650:12 *1587:C 18.7802 
*END

*D_NET *651 0.00239255
*CONN
*I *1609:A1 I *D sky130_fd_sc_hd__mux2_1
*I *1571:A I *D sky130_fd_sc_hd__nand2_1
*I *1658:Q O *D sky130_fd_sc_hd__dfrtp_1
*CAP
1 *1609:A1 0
2 *1571:A 0.000135011
3 *1658:Q 0.000268453
4 *651:14 0.000403465
5 *1571:B *1571:A 5.71472e-05
6 *1575:A1 *1571:A 0.00011857
7 *1575:A1 *651:14 0.000158137
8 *1575:A2 *651:14 0.000350097
9 *1588:B *651:14 0
10 *1647:D *651:14 0.000106914
11 *1658:D *651:14 6.05161e-06
12 *1658:RESET_B *651:14 0.000225616
13 *1673:RESET_B *651:14 1.27848e-05
14 *2:670 *651:14 4.47762e-05
15 *34:9 *1571:A 0.000194156
16 *106:26 *1571:A 0
17 *106:26 *651:14 0
18 *108:194 *651:14 3.61629e-06
19 *580:192 *1571:A 6.60437e-05
20 *580:192 *651:14 0.000228558
21 *637:10 *651:14 1.31516e-05
*RES
1 *1658:Q *651:14 31.1218 
2 *651:14 *1571:A 15.6862 
3 *651:14 *1609:A1 9.3 
*END

*D_NET *652 0.00157711
*CONN
*I *1592:C I *D sky130_fd_sc_hd__and3_1
*I *1637:A1 I *D sky130_fd_sc_hd__mux2_1
*I *1686:Q O *D sky130_fd_sc_hd__dfrtp_1
*CAP
1 *1592:C 0
2 *1637:A1 0.000108866
3 *1686:Q 0.000257532
4 *652:14 0.000366398
5 *1577:C *652:14 1.92789e-05
6 *1593:A1 *652:14 3.69047e-06
7 *1600:A2 *652:14 8.25843e-06
8 *1621:A0 *1637:A1 8.99414e-06
9 *1621:A0 *652:14 1.9069e-05
10 *1621:A1 *652:14 0.000234024
11 *1637:S *1637:A1 0
12 *2:185 *1637:A1 3.52572e-05
13 *2:187 *1637:A1 2.11419e-05
14 *108:10 *652:14 0
15 *616:12 *1637:A1 0
16 *625:43 *1637:A1 0.000103194
17 *625:43 *652:14 0.000165202
18 *625:55 *1637:A1 0.000146381
19 *634:10 *652:14 7.98175e-05
*RES
1 *1686:Q *652:14 27.0377 
2 *652:14 *1637:A1 22.2852 
3 *652:14 *1592:C 9.3 
*END

*D_NET *653 0.000954543
*CONN
*I *1638:A1 I *D sky130_fd_sc_hd__mux2_1
*I *1597:C I *D sky130_fd_sc_hd__and3_1
*I *1687:Q O *D sky130_fd_sc_hd__dfrtp_1
*CAP
1 *1638:A1 0.000129212
2 *1597:C 0.000109108
3 *1687:Q 2.29842e-05
4 *653:8 0.000261304
5 *1591:B2 *1638:A1 0
6 *1597:A *1597:C 0
7 *1597:A *1638:A1 0
8 *1651:D *1597:C 0.00011601
9 *2:134 *1597:C 3.88892e-05
10 *2:134 *1638:A1 6.8023e-05
11 *93:62 *653:8 0
12 *93:68 *1597:C 8.04913e-05
13 *93:68 *1638:A1 6.21279e-05
14 *93:110 *1638:A1 0
15 *271:16 *653:8 5.52238e-05
16 *626:58 *1597:C 1.1169e-05
*RES
1 *1687:Q *653:8 14.5426 
2 *653:8 *1597:C 18.305 
3 *653:8 *1638:A1 18.602 
*END

*D_NET *654 0.00112739
*CONN
*I *1610:A1 I *D sky130_fd_sc_hd__mux2_1
*I *1576:A I *D sky130_fd_sc_hd__nand2_1
*I *1659:Q O *D sky130_fd_sc_hd__dfrtp_1
*CAP
1 *1610:A1 0
2 *1576:A 0.000167729
3 *1659:Q 1.16921e-05
4 *654:8 0.000179421
5 *1577:C *1576:A 0
6 *1580:A2 *1576:A 4.27437e-05
7 *37:9 *1576:A 1.02504e-05
8 *37:9 *654:8 7.46814e-05
9 *40:11 *1576:A 0.000100831
10 *40:11 *654:8 8.49318e-05
11 *106:113 *1576:A 5.49257e-05
12 *580:133 *1576:A 0.000195196
13 *586:86 *1576:A 9.90367e-05
14 *587:32 *1576:A 5.0725e-05
15 *602:30 *1576:A 5.52302e-05
*RES
1 *1659:Q *654:8 15.2357 
2 *654:8 *1576:A 21.2258 
3 *654:8 *1610:A1 13.8 
*END

*D_NET *655 0.00128844
*CONN
*I *1584:A1 I *D sky130_fd_sc_hd__a221oi_1
*I *1611:A1 I *D sky130_fd_sc_hd__mux2_1
*I *1660:Q O *D sky130_fd_sc_hd__dfrtp_1
*CAP
1 *1584:A1 0.000165967
2 *1611:A1 0.000124369
3 *1660:Q 4.23867e-05
4 *655:12 0.000332723
5 *1584:B1 *1584:A1 2.89114e-05
6 *1584:B2 *1584:A1 0.000119967
7 *1584:B2 *1611:A1 2.05612e-05
8 *37:9 *655:12 0.000108111
9 *40:11 *655:12 0.000106403
10 *50:11 *1584:A1 0
11 *580:307 *1584:A1 0
12 *580:307 *1611:A1 5.52238e-05
13 *580:307 *655:12 2.89016e-05
14 *580:318 *1584:A1 3.99614e-06
15 *580:318 *1611:A1 5.16736e-05
16 *609:28 *1584:A1 9.92409e-05
*RES
1 *1660:Q *655:12 20.899 
2 *655:12 *1611:A1 12.9139 
3 *655:12 *1584:A1 15.2159 
*END

*D_NET *656 0.00236276
*CONN
*I *1586:A I *D sky130_fd_sc_hd__nand2_1
*I *1612:A1 I *D sky130_fd_sc_hd__mux2_1
*I *1661:Q O *D sky130_fd_sc_hd__dfrtp_1
*CAP
1 *1586:A 0.000203824
2 *1612:A1 0.000283593
3 *1661:Q 0
4 *656:6 0.000487417
5 *1586:B *1586:A 3.37082e-05
6 *1619:A0 *1586:A 3.69047e-06
7 *1628:A0 *1586:A 0.000182605
8 *1628:A0 *1612:A1 1.43864e-05
9 *1668:D *1586:A 1.02504e-05
10 *1668:D *1612:A1 0.000188671
11 *1677:D *1612:A1 0
12 *1677:RESET_B *1612:A1 1.20135e-05
13 *2:36 *1612:A1 2.22999e-05
14 *36:5 *1586:A 0.000196728
15 *36:5 *1612:A1 0.000205271
16 *39:17 *1586:A 0
17 *39:17 *1612:A1 0.000442635
18 *580:339 *1586:A 2.97829e-05
19 *626:98 *1612:A1 4.58835e-05
*RES
1 *1661:Q *656:6 13.8 
2 *656:6 *1612:A1 25.4832 
3 *656:6 *1586:A 21.3743 
*END

*D_NET *657 0.00218479
*CONN
*I *1613:A1 I *D sky130_fd_sc_hd__mux2_1
*I *1591:A1 I *D sky130_fd_sc_hd__a22oi_1
*I *1662:Q O *D sky130_fd_sc_hd__dfrtp_1
*CAP
1 *1613:A1 0.000136331
2 *1591:A1 0.000231379
3 *1662:Q 0.000166959
4 *657:6 0.000534668
5 *1579:B2 *1613:A1 9.71197e-05
6 *1591:B2 *1591:A1 9.26993e-05
7 *1595:A1 *1591:A1 4.00276e-06
8 *1662:RESET_B *657:6 4.85567e-05
9 *2:81 *1613:A1 0
10 *2:83 *1613:A1 0
11 *580:139 *1613:A1 5.52238e-05
12 *580:141 *1613:A1 5.52302e-05
13 *581:97 *1591:A1 0.000131297
14 *581:97 *1613:A1 0.000186278
15 *581:116 *1591:A1 1.05947e-05
16 *581:116 *657:6 3.44213e-05
17 *586:86 *1613:A1 0.000202835
18 *586:86 *657:6 0
19 *587:32 *1591:A1 4.15526e-05
20 *587:32 *1613:A1 4.58192e-05
21 *587:32 *657:6 0.00010982
*RES
1 *1662:Q *657:6 14.5971 
2 *657:6 *1591:A1 25.404 
3 *657:6 *1613:A1 25.6763 
*END

*D_NET *658 0.00202111
*CONN
*I *1614:A1 I *D sky130_fd_sc_hd__mux2_1
*I *1596:A1 I *D sky130_fd_sc_hd__a22oi_1
*I *1663:Q O *D sky130_fd_sc_hd__dfrtp_1
*CAP
1 *1614:A1 0
2 *1596:A1 0.000138274
3 *1663:Q 0.000321649
4 *658:14 0.000459923
5 *1562:A *658:14 0.000148859
6 *1596:A2 *1596:A1 5.66981e-05
7 *1614:A0 *1596:A1 0.000307494
8 *1663:D *1596:A1 5.00934e-05
9 *1663:D *658:14 0
10 *1679:D *658:14 1.1979e-05
11 *2:523 *658:14 0
12 *11:14 *1596:A1 0
13 *11:14 *658:14 0
14 *44:23 *658:14 0.000348227
15 *580:36 *658:14 3.23658e-05
16 *580:45 *658:14 0.000126744
17 *618:14 *1596:A1 1.88032e-05
*RES
1 *1663:Q *658:14 31.0228 
2 *658:14 *1596:A1 14.7889 
3 *658:14 *1614:A1 9.3 
*END

*D_NET *659 0.00276796
*CONN
*I *1564:B2 I *D sky130_fd_sc_hd__a221oi_1
*I *1615:A1 I *D sky130_fd_sc_hd__mux2_1
*I *1664:Q O *D sky130_fd_sc_hd__dfrtp_1
*CAP
1 *1564:B2 0.00033432
2 *1615:A1 0.000394765
3 *1664:Q 0
4 *659:4 0.000729085
5 *1564:A1 *1564:B2 1.24368e-05
6 *1564:C1 *1564:B2 4.64508e-05
7 *1584:B1 *1564:B2 2.72207e-05
8 *1589:C1 *1564:B2 0.000109604
9 *1589:C1 *1615:A1 4.91917e-05
10 *1615:A0 *1615:A1 9.60939e-05
11 *1672:CLK *1615:A1 2.89114e-05
12 *1672:D *1564:B2 0
13 *1672:D *1615:A1 5.92068e-05
14 *1684:RESET_B *1564:B2 0
15 *2:22 *1615:A1 2.43128e-05
16 *2:63 *1615:A1 3.32132e-06
17 *16:15 *1564:B2 0.000304387
18 *30:13 *1615:A1 0.000175818
19 *34:9 *1615:A1 0.000177465
20 *80:134 *1615:A1 0
21 *580:297 *1564:B2 0.000178847
22 *636:6 *1564:B2 1.65169e-05
*RES
1 *1664:Q *659:4 9.3 
2 *659:4 *1615:A1 30.8743 
3 *659:4 *1564:B2 21.107 
*END

*D_NET *660 0.00167233
*CONN
*I *1616:A1 I *D sky130_fd_sc_hd__mux2_1
*I *1568:B2 I *D sky130_fd_sc_hd__a22oi_1
*I *1665:Q O *D sky130_fd_sc_hd__dfrtp_1
*CAP
1 *1616:A1 4.06588e-05
2 *1568:B2 0.000140665
3 *1665:Q 0
4 *660:6 0.000181323
5 *1614:A0 *1568:B2 0.000481166
6 *1614:A0 *1616:A1 0.000179663
7 *31:7 *1568:B2 0.000481166
8 *31:7 *1616:A1 0.000167691
*RES
1 *1665:Q *660:6 13.8 
2 *660:6 *1568:B2 22.3892 
3 *660:6 *1616:A1 16.9188 
*END

*D_NET *661 0.0095273
*CONN
*I *1639:A1 I *D sky130_fd_sc_hd__mux2_1
*I *1601:A0 I *D sky130_fd_sc_hd__mux4_2
*I *1688:Q O *D sky130_fd_sc_hd__dfrtp_1
*CAP
1 *1639:A1 0
2 *1601:A0 0.00227511
3 *1688:Q 0.000253865
4 *661:10 0.00252897
5 *1498:CLK *661:10 0
6 *1562:B *1601:A0 0
7 *1587:C *1601:A0 5.33005e-05
8 *1588:B *1601:A0 0.00020546
9 *1596:B2 *1601:A0 0.000426599
10 *1628:A0 *1601:A0 5.30637e-06
11 *1639:A0 *1601:A0 8.6229e-06
12 *1639:A0 *661:10 4.62147e-05
13 *1688:D *661:10 0
14 *9:11 *1601:A0 0.00130847
15 *14:5 *1601:A0 0.000136239
16 *51:24 *1601:A0 0.00172032
17 *109:34 *1601:A0 3.35205e-05
18 *609:28 *1601:A0 0.000324352
19 *622:14 *1601:A0 8.6229e-06
20 *626:98 *1601:A0 0
21 *626:115 *1601:A0 0.00013182
22 *642:12 *1601:A0 6.05143e-05
*RES
1 *1688:Q *661:10 20.607 
2 *661:10 *1601:A0 34.5377 
3 *661:10 *1639:A1 13.8 
*END

*D_NET *662 0.00257291
*CONN
*I *1640:A1 I *D sky130_fd_sc_hd__mux2_1
*I *1601:A1 I *D sky130_fd_sc_hd__mux4_2
*I *1689:Q O *D sky130_fd_sc_hd__dfrtp_1
*CAP
1 *1640:A1 0.000341507
2 *1601:A1 0.000300425
3 *1689:Q 3.24737e-05
4 *662:8 0.000674406
5 *1601:A1 *1601:A3 5.52302e-05
6 *1640:A1 *1601:A2 0
7 *1640:A1 *1641:A1 0
8 *1640:A1 *1642:A1 9.90431e-05
9 *1587:C *1601:A1 0.000133045
10 *1636:A0 *1601:A1 0
11 *1636:A0 *662:8 4.00276e-06
12 *1636:A1 *1601:A1 0.000267377
13 *1636:S *1601:A1 9.60939e-05
14 *1636:S *1640:A1 2.72545e-05
15 *1640:A0 *1640:A1 5.71472e-05
16 *1642:S *1640:A1 2.14757e-05
17 *1661:CLK *1640:A1 7.02627e-05
18 *1677:D *1601:A1 0
19 *1689:RESET_B *662:8 1.58163e-05
20 *1690:RESET_B *1640:A1 0
21 *2:702 *1601:A1 0.000176226
22 *2:702 *1640:A1 8.15095e-05
23 *2:716 *1640:A1 0.000119618
*RES
1 *1689:Q *662:8 14.5426 
2 *662:8 *1601:A1 24.4931 
3 *662:8 *1640:A1 25.3842 
*END

*D_NET *663 0.00288931
*CONN
*I *1641:A1 I *D sky130_fd_sc_hd__mux2_1
*I *1601:A2 I *D sky130_fd_sc_hd__mux4_2
*I *1690:Q O *D sky130_fd_sc_hd__dfrtp_1
*CAP
1 *1641:A1 0.000155265
2 *1601:A2 0.000273634
3 *1690:Q 5.27357e-05
4 *663:8 0.000481635
5 *1601:A2 *1601:A3 0.00014753
6 *1601:A2 *1642:A1 0.000148476
7 *663:8 *1642:A1 8.3722e-05
8 *1636:A1 *1601:A2 5.52302e-05
9 *1640:A0 *1641:A1 0.000137505
10 *1640:A1 *1601:A2 0
11 *1640:A1 *1641:A1 0
12 *1641:A0 *1641:A1 5.33005e-05
13 *1661:CLK *1601:A2 0.00020042
14 *1685:RESET_B *1601:A2 5.19842e-06
15 *1690:D *1601:A2 3.17148e-05
16 *1690:D *1641:A1 0.00020657
17 *1690:D *663:8 0.000227532
18 *80:62 *1601:A2 0.000251915
19 *80:71 *1601:A2 0.000205264
20 *580:341 *1641:A1 5.33005e-05
21 *580:373 *1641:A1 0.000108594
22 *650:12 *1601:A2 9.76823e-06
*RES
1 *1690:Q *663:8 16.8198 
2 *663:8 *1601:A2 26.9189 
3 *663:8 *1641:A1 20.6565 
*END

*D_NET *664 0.0030568
*CONN
*I *1642:A1 I *D sky130_fd_sc_hd__mux2_1
*I *1601:A3 I *D sky130_fd_sc_hd__mux4_2
*I *1691:Q O *D sky130_fd_sc_hd__dfrtp_1
*CAP
1 *1642:A1 0.000396778
2 *1601:A3 0.000234633
3 *1691:Q 0.00019871
4 *664:8 0.00083012
5 *1572:B *1601:A3 4.46186e-06
6 *1587:C *1601:A3 5.71472e-05
7 *1601:A1 *1601:A3 5.52302e-05
8 *1601:A2 *1601:A3 0.00014753
9 *1601:A2 *1642:A1 0.000148476
10 *1636:A0 *1601:A3 0
11 *1636:A0 *1642:A1 0
12 *1636:A0 *664:8 0
13 *1636:S *664:8 1.21258e-05
14 *1640:A0 *1642:A1 0.000153947
15 *1640:A1 *1642:A1 9.90431e-05
16 *1642:S *1642:A1 0.000102765
17 *1661:D *1642:A1 0
18 *1668:CLK *664:8 7.02611e-05
19 *1677:D *1601:A3 0
20 *1677:D *664:8 0
21 *1689:D *1642:A1 1.03968e-05
22 *1689:RESET_B *664:8 3.35272e-05
23 *1690:D *1642:A1 0.000141172
24 *2:716 *664:8 0.000271339
25 *580:347 *1642:A1 0
26 *626:115 *1601:A3 5.41797e-06
27 *663:8 *1642:A1 8.3722e-05
*RES
1 *1691:Q *664:8 20.2357 
2 *664:8 *1601:A3 21.9436 
3 *664:8 *1642:A1 28.8496 
*END

*D_NET *665 0.000306117
*CONN
*I *1761:D I *D sky130_fd_sc_hd__dfrtp_1
*I *1697:X O *D sky130_fd_sc_hd__mux2_1
*CAP
1 *1761:D 0.00014334
2 *1697:X 0.00014334
3 *1761:D *1697:A1 0
4 *1761:D *1708:A 0
5 *1092:S *1761:D 0
6 *1099:RESET_B *1761:D 1.40415e-05
7 *1761:CLK *1761:D 5.39629e-06
8 *67:94 *1761:D 0
*RES
1 *1697:X *1761:D 31.4614 
*END

*D_NET *666 0.000554984
*CONN
*I *1762:D I *D sky130_fd_sc_hd__dfrtp_1
*I *1698:X O *D sky130_fd_sc_hd__mux2_1
*CAP
1 *1762:D 0.00023767
2 *1698:X 0.00023767
3 *1091:A0 *1762:D 0
4 *1100:D *1762:D 0
5 *1762:CLK *1762:D 3.18676e-05
6 *374:10 *1762:D 4.77762e-05
*RES
1 *1698:X *1762:D 27.0654 
*END

*D_NET *667 0.000760626
*CONN
*I *1763:D I *D sky130_fd_sc_hd__dfrtp_1
*I *1699:X O *D sky130_fd_sc_hd__mux2_1
*CAP
1 *1763:D 0.000161257
2 *1699:X 0.000161257
3 *1763:D *759:14 0.000105689
4 *1699:A0 *1763:D 6.86792e-05
5 *1763:RESET_B *1763:D 0.000159769
6 *67:20 *1763:D 0.000103974
7 *123:8 *1763:D 0
*RES
1 *1699:X *1763:D 33.2188 
*END

*D_NET *668 0.00084719
*CONN
*I *1764:D I *D sky130_fd_sc_hd__dfrtp_1
*I *1700:X O *D sky130_fd_sc_hd__mux2_1
*CAP
1 *1764:D 0.000323206
2 *1700:X 0.000323206
3 *1764:D *1702:A1 0.000118592
4 *1764:D *760:8 0
5 *1700:A0 *1764:D 0
6 *1764:RESET_B *1764:D 3.71789e-06
7 *1766:RESET_B *1764:D 0
8 *50:467 *1764:D 6.82179e-05
9 *50:471 *1764:D 0
10 *67:12 *1764:D 1.02504e-05
*RES
1 *1700:X *1764:D 37.4515 
*END

*D_NET *669 0.00172326
*CONN
*I *1765:D I *D sky130_fd_sc_hd__dfrtp_1
*I *1701:X O *D sky130_fd_sc_hd__mux2_1
*CAP
1 *1765:D 0.000297849
2 *1701:X 0.000297849
3 *1090:A1 *1765:D 0
4 *1101:D *1765:D 0
5 *1110:A *1765:D 6.57026e-05
6 *1765:CLK *1765:D 0.000169368
7 *50:256 *1765:D 0.000134719
8 *50:263 *1765:D 0.000196728
9 *50:291 *1765:D 0.000236657
10 *67:70 *1765:D 0.000310286
11 *105:22 *1765:D 1.41029e-05
*RES
1 *1701:X *1765:D 42.0308 
*END

*D_NET *670 0.00059906
*CONN
*I *1766:D I *D sky130_fd_sc_hd__dfrtp_1
*I *1702:X O *D sky130_fd_sc_hd__mux2_1
*CAP
1 *1766:D 0.000177955
2 *1702:X 0.000177955
3 *1090:A1 *1766:D 0
4 *1700:A0 *1766:D 0
5 *1766:CLK *1766:D 1.05999e-05
6 *67:18 *1766:D 0.000133012
7 *71:14 *1766:D 9.58478e-05
8 *71:68 *1766:D 3.69047e-06
*RES
1 *1702:X *1766:D 33.4664 
*END

*D_NET *671 0.000719453
*CONN
*I *1767:D I *D sky130_fd_sc_hd__dfrtp_1
*I *1703:X O *D sky130_fd_sc_hd__mux2_1
*CAP
1 *1767:D 0.000206917
2 *1703:X 0.000206917
3 *1703:A0 *1767:D 0.000222784
4 *1767:CLK *1767:D 0
5 *1767:RESET_B *1767:D 8.28343e-05
6 *1768:RESET_B *1767:D 0
7 *1777:CLK *1767:D 0
8 *67:35 *1767:D 0
9 *72:74 *1767:D 0
*RES
1 *1703:X *1767:D 34.7535 
*END

*D_NET *672 0.000604419
*CONN
*I *1768:D I *D sky130_fd_sc_hd__dfrtp_1
*I *1704:X O *D sky130_fd_sc_hd__mux2_1
*CAP
1 *1768:D 0.000223747
2 *1704:X 0.000223747
3 *1768:D *722:35 0.000156926
4 *1768:CLK *1768:D 0
5 *1768:RESET_B *1768:D 0
6 *73:26 *1768:D 0
*RES
1 *1704:X *1768:D 34.7535 
*END

*D_NET *673 0.000389161
*CONN
*I *1769:D I *D sky130_fd_sc_hd__dfrtp_1
*I *1706:Y O *D sky130_fd_sc_hd__nand2_1
*CAP
1 *1769:D 5.37297e-05
2 *1706:Y 5.37297e-05
3 *1769:D *1706:A 3.18676e-05
4 *1769:D *1706:B 0.000232399
5 *1769:D *1731:A2 0
6 *1769:CLK *1769:D 1.74352e-05
*RES
1 *1706:Y *1769:D 21.6198 
*END

*D_NET *674 0.00886296
*CONN
*I *1770:D I *D sky130_fd_sc_hd__dfstp_2
*I *1720:Y O *D sky130_fd_sc_hd__a31oi_1
*CAP
1 *1770:D 0.000170332
2 *1720:Y 3.52603e-05
3 *674:12 0.00259876
4 *674:10 0.00246369
5 *674:10 *1720:A1 1.97695e-05
6 *674:10 *1753:A1 1.3701e-05
7 *674:10 *1788:D 0
8 *674:10 *691:16 2.59355e-05
9 *674:12 *1697:S 0.000130698
10 *674:12 *1700:A1 0
11 *674:12 *1720:B1 3.34366e-05
12 *674:12 *1755:A1 0
13 *674:12 *722:12 0.000275094
14 *674:12 *722:105 0
15 *1463:B *674:12 0
16 *1465:B *674:12 0
17 *1466:C *674:12 0
18 *1481:CLK *674:12 0
19 *1490:D *674:12 0.000521618
20 *1490:RESET_B *674:12 5.66647e-05
21 *1492:CLK *674:12 0
22 *1492:RESET_B *674:12 0.000283112
23 *1493:D *1770:D 0
24 *1493:D *674:12 0
25 *1494:D *674:12 0
26 *1495:RESET_B *674:12 0.000140321
27 *1498:CLK *1770:D 0
28 *1498:RESET_B *1770:D 0
29 *1498:RESET_B *674:12 0.000106912
30 *1506:CLK *674:12 0
31 *1521:A *674:12 0.000153054
32 *1522:B *674:12 0
33 *1529:B *674:12 0
34 *1770:CLK *1770:D 0.000149228
35 *1770:SET_B *1770:D 1.19309e-05
36 *2:351 *674:12 0.000133005
37 *2:355 *674:12 0.000279953
38 *2:372 *674:12 0
39 *2:374 *674:12 0
40 *2:376 *674:12 0
41 *2:378 *674:12 0
42 *2:384 *674:12 0
43 *2:413 *674:12 0.000166221
44 *2:479 *674:12 0.000275109
45 *2:486 *674:12 0.000132297
46 *2:493 *674:12 0.000279238
47 *2:500 *674:12 0.000133005
48 *2:600 *674:12 0.000274621
49 *69:14 *674:12 0
50 *69:24 *674:12 0
51 *82:90 *674:12 0
52 *82:119 *674:12 0
53 *447:12 *674:12 0
54 *457:8 *674:12 0
55 *471:18 *674:12 0
56 *527:14 *674:12 0
*RES
1 *1720:Y *674:10 15.1366 
2 *674:10 *674:12 83.4905 
3 *674:12 *1770:D 28.1466 
*END

*D_NET *675 0.000951639
*CONN
*I *1771:D I *D sky130_fd_sc_hd__dfrtp_1
*I *1730:Y O *D sky130_fd_sc_hd__nor2_1
*CAP
1 *1771:D 0.00018914
2 *1730:Y 0.00018914
3 *1771:D *1729:B1 0.000128263
4 *1771:D *1730:B 2.28598e-05
5 *1771:D *1759:B1 0.000165068
6 *1771:D *752:43 5.33334e-05
7 *1771:D *753:46 0.000128875
8 *1771:D *753:58 5.71146e-05
9 *1771:D *753:69 0
10 *50:107 *1771:D 1.78447e-05
*RES
1 *1730:Y *1771:D 35.9169 
*END

*D_NET *676 0.000531102
*CONN
*I *1772:D I *D sky130_fd_sc_hd__dfrtp_1
*I *1732:Y O *D sky130_fd_sc_hd__nor2_1
*CAP
1 *1772:D 0.000158694
2 *1732:Y 0.000158694
3 *1772:D *1732:A 0.000116017
4 *1772:D *1732:B 0
5 *1772:D *1738:A2 3.18676e-05
6 *50:146 *1772:D 0
7 *72:18 *1772:D 6.58289e-05
*RES
1 *1732:Y *1772:D 33.5654 
*END

*D_NET *677 0.000657239
*CONN
*I *1773:D I *D sky130_fd_sc_hd__dfrtp_1
*I *1735:Y O *D sky130_fd_sc_hd__nor3_1
*CAP
1 *1773:D 0.000193183
2 *1735:Y 0.000193183
3 *1773:D *1725:C 0
4 *1773:D *1734:A 0
5 *1773:D *1734:B 9.50965e-05
6 *1773:D *1735:A 1.21258e-05
7 *1773:D *1735:B 1.77301e-05
8 *1773:D *1735:C 0.000126629
9 *1773:CLK *1773:D 1.92905e-05
*RES
1 *1735:Y *1773:D 25.6297 
*END

*D_NET *678 0.000722445
*CONN
*I *1774:D I *D sky130_fd_sc_hd__dfrtp_1
*I *1737:Y O *D sky130_fd_sc_hd__nor2_1
*CAP
1 *1774:D 0.000142282
2 *1737:Y 0.000142282
3 *1774:D *1723:A 0
4 *1774:D *1738:A2 0.000105689
5 *50:146 *1774:D 0.000263524
6 *72:22 *1774:D 6.86693e-05
*RES
1 *1737:Y *1774:D 33.0456 
*END

*D_NET *679 0.00086374
*CONN
*I *1775:D I *D sky130_fd_sc_hd__dfrtp_1
*I *1741:Y O *D sky130_fd_sc_hd__nor3_1
*CAP
1 *1775:D 0.000174545
2 *1741:Y 0.000174545
3 *1775:D *1734:A 0.000185919
4 *1775:D *1734:B 7.77652e-05
5 *1775:D *1736:B 0.000122091
6 *1775:D *736:29 0
7 *50:127 *1775:D 0.000128875
8 *72:10 *1775:D 0
*RES
1 *1741:Y *1775:D 35.3476 
*END

*D_NET *680 0.001527
*CONN
*I *1776:D I *D sky130_fd_sc_hd__dfrtp_1
*I *1744:Y O *D sky130_fd_sc_hd__nor2_1
*CAP
1 *1776:D 0.000291918
2 *1744:Y 0.000291918
3 *1776:D *1743:B 0.000102895
4 *1776:D *1744:A 5.85274e-05
5 *1776:D *1744:B 0.000762603
6 *1776:D *693:14 1.91408e-05
7 *1777:CLK *1776:D 0
*RES
1 *1744:Y *1776:D 31.6508 
*END

*D_NET *681 0.000339058
*CONN
*I *1777:D I *D sky130_fd_sc_hd__dfrtp_1
*I *1747:Y O *D sky130_fd_sc_hd__nor2_1
*CAP
1 *1777:D 0.000141093
2 *1747:Y 0.000141093
3 *1777:D *1744:A 0
4 *1777:D *1747:B 5.68722e-05
5 *1777:D *696:14 0
6 *1777:D *701:18 0
7 *1777:RESET_B *1777:D 0
*RES
1 *1747:Y *1777:D 31.3376 
*END

*D_NET *682 0.00066352
*CONN
*I *1778:D I *D sky130_fd_sc_hd__dfrtp_1
*I *1749:Y O *D sky130_fd_sc_hd__nor2_1
*CAP
1 *1778:D 6.74276e-05
2 *1749:Y 6.74276e-05
3 *1778:D *1747:B 0.00031119
4 *1778:D *1749:A 5.52238e-05
5 *1778:D *1749:B 0.000107022
6 *1778:CLK *1778:D 5.52302e-05
*RES
1 *1749:Y *1778:D 22.7584 
*END

*D_NET *683 0.00110574
*CONN
*I *1788:D I *D sky130_fd_sc_hd__dfrtp_1
*I *1753:Y O *D sky130_fd_sc_hd__a21oi_1
*CAP
1 *1788:D 0.000340303
2 *1753:Y 0.000340303
3 *1788:D *1713:A1 0
4 *1788:D *1713:A2 4.00276e-06
5 *1788:D *1720:A1 0
6 *1788:D *1720:B1 9.53267e-05
7 *1788:D *1753:B1 0.000151649
8 *1788:D *691:16 0
9 *1788:D *722:12 1.80952e-05
10 *1788:D *734:10 0
11 *1788:D *734:12 0
12 *1788:RESET_B *1788:D 3.71789e-06
13 *50:457 *1788:D 0.00015234
14 *674:10 *1788:D 0
*RES
1 *1753:Y *1788:D 37.8723 
*END

*D_NET *684 0.00163289
*CONN
*I *1789:D I *D sky130_fd_sc_hd__dfrtp_1
*I *1755:Y O *D sky130_fd_sc_hd__o22ai_1
*CAP
1 *1789:D 0.000359876
2 *1755:Y 0.000359876
3 *1789:D *1753:B1 0.000213926
4 *1789:D *1755:A2 1.02504e-05
5 *1789:D *1755:B1 0.000458447
6 *1789:D *1755:B2 3.98404e-05
7 *1789:D *1758:A2 2.06112e-05
8 *1789:D *1790:D 3.06878e-06
9 *1789:D *722:12 3.94422e-05
10 *1789:D *734:6 0.000120114
11 *1789:D *734:10 7.43578e-06
*RES
1 *1755:Y *1789:D 40.9912 
*END

*D_NET *685 0.00188989
*CONN
*I *1790:D I *D sky130_fd_sc_hd__dfrtp_1
*I *1757:Y O *D sky130_fd_sc_hd__o22ai_1
*CAP
1 *1790:D 0.000526251
2 *1757:Y 0.000526251
3 *1790:D *1713:B1 0.000144632
4 *1790:D *1713:C1 5.54856e-05
5 *1790:D *1755:B1 5.09369e-05
6 *1790:D *1757:A1 3.80414e-05
7 *1790:D *1758:A2 5.19935e-05
8 *1790:D *1758:A3 1.98839e-05
9 *1790:D *1759:C1 0.000177821
10 *1790:D *690:18 0
11 *1790:D *714:14 5.47476e-06
12 *1790:D *720:20 3.37242e-05
13 *1790:D *722:12 2.47697e-05
14 *1790:D *731:16 5.56679e-05
15 *1790:D *734:6 0
16 *1789:D *1790:D 3.06878e-06
17 *1790:RESET_B *1790:D 0.000175892
*RES
1 *1757:Y *1790:D 43.7387 
*END

*D_NET *686 0.000944293
*CONN
*I *1791:D I *D sky130_fd_sc_hd__dfrtp_1
*I *1759:X O *D sky130_fd_sc_hd__o311a_1
*CAP
1 *1791:D 0.000297352
2 *1759:X 0.000297352
3 *1791:D *1731:A1 0
4 *1791:D *1759:C1 0.000308469
5 *1791:D *752:10 4.11196e-05
6 *1791:D *753:40 0
7 *50:111 *1791:D 0
*RES
1 *1759:X *1791:D 37.4515 
*END

*D_NET *687 0.00145329
*CONN
*I *1792:D I *D sky130_fd_sc_hd__dfrtp_1
*I *1760:Y O *D sky130_fd_sc_hd__xnor2_1
*CAP
1 *1792:D 0.000365882
2 *1760:Y 0.000365882
3 *1792:D *1729:A3 9.60939e-05
4 *1792:D *1731:A2 0
5 *1792:D *1760:B 0.000178663
6 *1792:D *698:50 0.00016272
7 *1792:D *752:37 0
8 *1792:D *752:43 3.14163e-05
9 *1771:CLK *1792:D 0.000252637
*RES
1 *1760:Y *1792:D 40.8674 
*END

*D_NET *688 0.00086902
*CONN
*I *1718:A2 I *D sky130_fd_sc_hd__a21oi_1
*I *1716:Y O *D sky130_fd_sc_hd__nor2_1
*CAP
1 *1718:A2 0.000192402
2 *1716:Y 0.000192402
3 *1718:A2 *1710:A 3.80385e-05
4 *1718:A2 *1710:B 0.000110916
5 *1718:A2 *1711:A 0
6 *1718:A2 *1712:B1 0.000138881
7 *1718:A2 *1712:C1 0
8 *1718:A2 *1716:B 5.43599e-05
9 *1718:A2 *1718:A1 1.00073e-05
10 *1718:A2 *1718:B1 0
11 *1718:A2 *690:18 9.80173e-05
12 *1718:A2 *722:46 0
13 *1718:A2 *733:48 1.00073e-05
14 *1718:A2 *734:22 2.39876e-05
*RES
1 *1716:Y *1718:A2 35.0258 
*END

*D_NET *689 0.00234745
*CONN
*I *1718:B1 I *D sky130_fd_sc_hd__a21oi_1
*I *1717:Y O *D sky130_fd_sc_hd__o21ai_0
*CAP
1 *1718:B1 0.000478675
2 *1717:Y 0.000478675
3 *1718:B1 *1710:A 1.92905e-05
4 *1718:B1 *1710:B 0.000126439
5 *1718:B1 *1710:C_N 2.16719e-05
6 *1718:B1 *1712:A2 0.000100625
7 *1718:B1 *1712:B1 0.000114662
8 *1718:B1 *1712:C1 6.05161e-06
9 *1718:B1 *1716:B 1.32552e-05
10 *1718:B1 *1718:A1 0.000139907
11 *1718:B1 *1752:B1 0.000195161
12 *1718:B1 *690:18 2.24079e-05
13 *1718:B1 *734:22 3.17148e-05
14 *1718:A2 *1718:B1 0
15 *1768:CLK *1718:B1 0.000102197
16 *73:26 *1718:B1 0.000496714
17 *73:37 *1718:B1 0
*RES
1 *1717:Y *1718:B1 46.8328 
*END

*D_NET *690 0.0034146
*CONN
*I *1719:B1 I *D sky130_fd_sc_hd__o21ai_0
*I *1718:Y O *D sky130_fd_sc_hd__a21oi_1
*CAP
1 *1719:B1 0
2 *1718:Y 0.000657401
3 *690:18 0.000657401
4 *690:18 *1709:A 4.88546e-05
5 *690:18 *1710:C_N 8.32171e-05
6 *690:18 *1711:A 0.000356022
7 *690:18 *1712:A2 0.000188586
8 *690:18 *1712:C1 9.71197e-05
9 *690:18 *1713:B1 1.33343e-05
10 *690:18 *1716:B 1.4966e-05
11 *690:18 *1731:A1 3.57366e-05
12 *690:18 *1731:A2 4.1896e-06
13 *690:18 *1752:A2 1.61766e-05
14 *690:18 *1752:B1 1.32724e-05
15 *690:18 *1756:A 2.89016e-05
16 *690:18 *1756:B 1.56e-05
17 *690:18 *1757:B1 0.000474766
18 *690:18 *1758:A2 0
19 *690:18 *714:14 8.52174e-05
20 *690:18 *720:20 0.000113729
21 *690:18 *726:42 9.90431e-05
22 *690:18 *733:31 8.15095e-05
23 *690:18 *733:48 5.36473e-05
24 *690:18 *734:20 0
25 *1718:A2 *690:18 9.80173e-05
26 *1718:B1 *690:18 2.24079e-05
27 *1790:D *690:18 0
28 *73:37 *690:18 0.00013059
29 *73:46 *690:18 2.48938e-05
*RES
1 *1718:Y *690:18 44.4387 
2 *690:18 *1719:B1 9.3 
*END

*D_NET *691 0.00338683
*CONN
*I *1720:A3 I *D sky130_fd_sc_hd__a31oi_1
*I *1719:Y O *D sky130_fd_sc_hd__o21ai_0
*CAP
1 *1720:A3 0
2 *1719:Y 0.00056333
3 *691:16 0.00056333
4 *691:16 *1707:SLEEP 0
5 *691:16 *1713:A1 9.58318e-06
6 *691:16 *1719:A1 3.87453e-05
7 *691:16 *1720:A1 3.67142e-05
8 *691:16 *1720:A2 0.000571721
9 *691:16 *1720:B1 2.11419e-05
10 *691:16 *1750:A 4.34627e-05
11 *691:16 *1751:A1 2.41649e-05
12 *691:16 *1751:A2 0.000630695
13 *691:16 *1751:B1 5.52302e-05
14 *691:16 *1752:A2 5.52302e-05
15 *691:16 *1753:A1 1.21258e-05
16 *691:16 *1753:A2 6.62841e-05
17 *691:16 *1753:B1 5.52238e-05
18 *691:16 *1755:A1 5.19842e-06
19 *691:16 *1757:B1 0.000128161
20 *691:16 *1757:B2 1.02532e-05
21 *691:16 *698:25 3.47641e-06
22 *691:16 *713:8 2.1768e-05
23 *691:16 *714:14 0
24 *691:16 *731:16 0.000148903
25 *691:16 *731:18 0.000207501
26 *691:16 *732:22 4.31193e-05
27 *1112:A *691:16 4.5534e-05
28 *1788:D *691:16 0
29 *674:10 *691:16 2.59355e-05
*RES
1 *1719:Y *691:16 43.1021 
2 *691:16 *1720:A3 9.3 
*END

*D_NET *692 0.00110888
*CONN
*I *1722:A2 I *D sky130_fd_sc_hd__a21oi_1
*I *1721:X O *D sky130_fd_sc_hd__a21o_1
*CAP
1 *1722:A2 0.000291494
2 *1721:X 0.000291494
3 *1722:A2 *1722:A1 1.92905e-05
4 *1722:A2 *1736:A 0.000155476
5 *1722:A2 *1745:C 0
6 *1722:A2 *706:12 0.000100922
7 *1722:A2 *707:14 0
8 *1722:A2 *746:17 0.000250208
9 *1722:A2 *747:19 0
*RES
1 *1721:X *1722:A2 38.5159 
*END

*D_NET *693 0.00234121
*CONN
*I *1726:A2 I *D sky130_fd_sc_hd__o21a_1
*I *1727:A2 I *D sky130_fd_sc_hd__o21ai_0
*I *1722:Y O *D sky130_fd_sc_hd__a21oi_1
*CAP
1 *1726:A2 0
2 *1727:A2 0.000147138
3 *1722:Y 0.000539732
4 *693:14 0.00068687
5 *1727:A2 *1726:B1 7.03295e-05
6 *1727:A2 *1727:A1 2.47833e-05
7 *1727:A2 *1747:A 5.37963e-05
8 *1727:A2 *1747:B 0
9 *1727:A2 *1749:B 4.46231e-06
10 *1727:A2 *696:14 9.90431e-05
11 *1727:A2 *701:14 0
12 *693:14 *1722:B1 1.21258e-05
13 *693:14 *1727:A1 1.32552e-05
14 *693:14 *1740:A 0
15 *693:14 *1743:B 6.4403e-05
16 *693:14 *1747:B 0
17 *693:14 *1749:B 9.00795e-06
18 *693:14 *701:14 1.6959e-05
19 *693:14 *701:16 1.37292e-05
20 *693:14 *707:14 0.000133518
21 *693:14 *707:18 0.000230482
22 *693:14 *719:10 1.92789e-05
23 *693:14 *747:8 4.51611e-05
24 *1776:D *693:14 1.91408e-05
25 *1778:CLK *693:14 0.000137996
26 *50:121 *693:14 0
27 *50:125 *693:14 0
*RES
1 *1722:Y *693:14 36.3694 
2 *693:14 *1727:A2 23.4733 
3 *693:14 *1726:A2 9.3 
*END

*D_NET *694 0.00045558
*CONN
*I *1725:C I *D sky130_fd_sc_hd__nor4_1
*I *1723:X O *D sky130_fd_sc_hd__or3_1
*CAP
1 *1725:C 0.000104413
2 *1723:X 0.000104413
3 *1725:C *1723:B 0.00014183
4 *1725:C *1725:A 2.65105e-05
5 *1725:C *1725:B 7.84126e-05
6 *1773:D *1725:C 0
7 *1777:RESET_B *1725:C 0
*RES
1 *1723:X *1725:C 22.7584 
*END

*D_NET *695 0.00125025
*CONN
*I *1725:D I *D sky130_fd_sc_hd__nor4_1
*I *1724:X O *D sky130_fd_sc_hd__or4_1
*CAP
1 *1725:D 0.000478121
2 *1724:X 0.000478121
3 *1725:D *1723:B 0
4 *1725:D *1723:C 0
5 *1779:CLK *1725:D 0
6 *1781:CLK *1725:D 0
7 *1782:CLK *1725:D 2.59355e-05
8 *1782:RESET_B *1725:D 0.00026807
9 *1785:RESET_B *1725:D 0
*RES
1 *1724:X *1725:D 41.0159 
*END

*D_NET *696 0.00230474
*CONN
*I *1726:B1 I *D sky130_fd_sc_hd__o21a_1
*I *1727:B1 I *D sky130_fd_sc_hd__o21ai_0
*I *1725:Y O *D sky130_fd_sc_hd__nor4_1
*CAP
1 *1726:B1 4.66532e-05
2 *1727:B1 0
3 *1725:Y 0.000882483
4 *696:14 0.000929136
5 *1726:B1 *1727:A1 8.17614e-05
6 *696:14 *1703:S 0.000149302
7 *696:14 *1725:A 0
8 *696:14 *1727:A1 4.60342e-05
9 *696:14 *1755:B2 0
10 *1111:A *696:14 0
11 *1704:A0 *696:14 0
12 *1727:A2 *1726:B1 7.03295e-05
13 *1727:A2 *696:14 9.90431e-05
14 *1777:D *696:14 0
15 *1785:RESET_B *696:14 0
*RES
1 *1725:Y *696:14 41.0724 
2 *696:14 *1727:B1 9.3 
3 *696:14 *1726:B1 11.7753 
*END

*D_NET *697 0.00363582
*CONN
*I *1751:A2 I *D sky130_fd_sc_hd__a21oi_1
*I *1758:A3 I *D sky130_fd_sc_hd__o31ai_1
*I *1731:B1 I *D sky130_fd_sc_hd__o21ai_0
*I *1726:X O *D sky130_fd_sc_hd__o21a_1
*CAP
1 *1751:A2 0.000230617
2 *1758:A3 5.08631e-05
3 *1731:B1 0
4 *1726:X 0.0001974
5 *697:29 0.000471225
6 *697:10 0.000387145
7 *1751:A2 *1720:A2 7.46964e-05
8 *1751:A2 *1751:A1 9.58126e-05
9 *1751:A2 *731:16 0.000103442
10 *1751:A2 *732:22 0.000158707
11 *1758:A3 *1758:B1 5.33005e-05
12 *1758:A3 *1759:C1 9.41642e-05
13 *1758:A3 *714:14 2.05612e-05
14 *697:10 *1706:A 1.20767e-05
15 *697:10 *1727:A1 0.00014183
16 *697:10 *1755:B2 5.30637e-06
17 *697:10 *701:14 0.000322467
18 *697:29 *1731:A1 2.13481e-06
19 *697:29 *1755:A2 4.00025e-05
20 *697:29 *1757:A2 1.52978e-05
21 *697:29 *1759:C1 9.08061e-05
22 *697:29 *701:14 8.13094e-05
23 *697:29 *714:14 7.20884e-05
24 *1790:D *1758:A3 1.98839e-05
25 *50:121 *697:10 0
26 *73:16 *697:10 1.02504e-05
27 *73:16 *697:29 0.000177941
28 *73:20 *697:10 7.57965e-05
29 *691:16 *1751:A2 0.000630695
*RES
1 *1726:X *697:10 21.3248 
2 *697:10 *1731:B1 13.8 
3 *697:10 *697:29 12 
4 *697:29 *1758:A3 11.1812 
5 *697:29 *1751:A2 29.8842 
*END

*D_NET *698 0.0043717
*CONN
*I *1729:A3 I *D sky130_fd_sc_hd__a31oi_1
*I *1728:B I *D sky130_fd_sc_hd__nand2_1
*I *1752:A2 I *D sky130_fd_sc_hd__a21oi_1
*I *1750:B I *D sky130_fd_sc_hd__nand2_1
*I *1727:Y O *D sky130_fd_sc_hd__o21ai_0
*CAP
1 *1729:A3 0.000224223
2 *1728:B 0
3 *1752:A2 0.000126301
4 *1750:B 6.57916e-05
5 *1727:Y 8.87289e-05
6 *698:50 0.000644741
7 *698:25 0.000605314
8 *698:8 0.000213016
9 *1729:A3 *1720:A2 4.42832e-05
10 *1729:A3 *1760:B 5.52238e-05
11 *1729:A3 *731:16 2.60158e-05
12 *1729:A3 *752:43 4.80241e-05
13 *1729:A3 *752:49 0
14 *1729:A3 *753:58 9.7049e-06
15 *1729:A3 *753:69 7.89061e-05
16 *1729:A3 *753:73 0.000142856
17 *1750:B *1706:A 0.000145831
18 *1750:B *1717:B1 0
19 *1750:B *1750:A 5.49544e-05
20 *1752:A2 *1719:A1 5.52238e-05
21 *1752:A2 *1731:A2 5.7661e-06
22 *1752:A2 *1752:B1 1.97695e-05
23 *1752:A2 *1757:B1 3.28672e-05
24 *1752:A2 *713:8 1.68409e-05
25 *1752:A2 *732:22 5.52302e-05
26 *698:8 *1750:A 9.69119e-06
27 *698:8 *1755:B2 7.90803e-05
28 *698:8 *701:14 2.91794e-05
29 *698:25 *1750:A 3.46983e-05
30 *698:25 *1755:B2 5.41794e-05
31 *698:25 *1757:B2 6.94101e-05
32 *698:50 *1731:A1 8.25843e-06
33 *698:50 *1731:A2 0.000219711
34 *698:50 *1757:A1 0
35 *698:50 *713:8 1.58163e-05
36 *698:50 *731:16 8.34049e-05
37 *1769:CLK *698:50 1.40415e-05
38 *1771:CLK *1729:A3 4.1331e-06
39 *1771:CLK *698:50 0.000128039
40 *1792:D *1729:A3 9.60939e-05
41 *1792:D *698:50 0.00016272
42 *73:12 *698:50 8.48609e-05
43 *73:16 *698:50 0.000109566
44 *73:20 *698:50 5.59013e-05
45 *73:26 *1750:B 0.00022711
46 *73:26 *1752:A2 0
47 *73:26 *698:50 5.13075e-05
48 *690:18 *1752:A2 1.61766e-05
49 *691:16 *1752:A2 5.52302e-05
50 *691:16 *698:25 3.47641e-06
*RES
1 *1727:Y *698:8 16.498 
2 *698:8 *1750:B 18.1565 
3 *698:8 *698:25 6.77724 
4 *698:25 *1752:A2 14.2753 
5 *698:25 *698:50 21.2575 
6 *698:50 *1728:B 13.8 
7 *698:50 *1729:A3 22.6614 
*END

*D_NET *699 0.00188463
*CONN
*I *1759:B1 I *D sky130_fd_sc_hd__o311a_1
*I *1760:B I *D sky130_fd_sc_hd__xnor2_1
*I *1728:Y O *D sky130_fd_sc_hd__nand2_1
*CAP
1 *1759:B1 0.000392034
2 *1760:B 0.00010399
3 *1728:Y 9.33958e-05
4 *699:6 0.00058942
5 *1759:B1 *1729:B1 3.075e-05
6 *1759:B1 *752:14 0
7 *1759:B1 *752:43 1.00073e-05
8 *1759:B1 *753:40 0
9 *1759:B1 *753:46 1.57931e-05
10 *1760:B *1720:A2 0
11 *1760:B *752:37 3.98131e-05
12 *1760:B *752:91 4.06782e-05
13 *1760:B *753:69 2.89016e-05
14 *699:6 *752:43 2.65133e-05
15 *699:6 *752:49 3.18676e-05
16 *1729:A3 *1760:B 5.52238e-05
17 *1759:A3 *1759:B1 7.71151e-05
18 *1771:D *1759:B1 0.000165068
19 *1789:RESET_B *1759:B1 5.39166e-06
20 *1789:RESET_B *699:6 0
21 *1792:D *1760:B 0.000178663
*RES
1 *1728:Y *699:6 11.7505 
2 *699:6 *1760:B 23.003 
3 *699:6 *1759:B1 30.6268 
*END

*D_NET *700 0.000434537
*CONN
*I *1730:B I *D sky130_fd_sc_hd__nor2_1
*I *1729:Y O *D sky130_fd_sc_hd__a31oi_1
*CAP
1 *1730:B 7.72851e-05
2 *1729:Y 7.72851e-05
3 *1730:B *1695:B 3.29076e-05
4 *1730:B *1730:A 5.75275e-05
5 *1730:B *753:58 0.000166672
6 *1730:B *753:69 0
7 *1696:A *1730:B 0
8 *1771:D *1730:B 2.28598e-05
*RES
1 *1729:Y *1730:B 22.2386 
*END

*D_NET *701 0.00807131
*CONN
*I *1747:A I *D sky130_fd_sc_hd__nor2_1
*I *1749:A I *D sky130_fd_sc_hd__nor2_1
*I *1744:A I *D sky130_fd_sc_hd__nor2_1
*I *1741:A I *D sky130_fd_sc_hd__nor3_1
*I *1735:A I *D sky130_fd_sc_hd__nor3_1
*I *1737:A I *D sky130_fd_sc_hd__nor2_1
*I *1732:B I *D sky130_fd_sc_hd__nor2_1
*I *1731:Y O *D sky130_fd_sc_hd__o21ai_0
*CAP
1 *1747:A 6.8303e-05
2 *1749:A 1.1624e-05
3 *1744:A 0.000257336
4 *1741:A 0.000174037
5 *1735:A 3.98673e-05
6 *1737:A 2.69215e-05
7 *1732:B 0.000219366
8 *1731:Y 0.000360918
9 *701:24 0.000295807
10 *701:22 0.00020343
11 *701:20 0.000423519
12 *701:18 0.000484242
13 *701:16 0.000148572
14 *701:14 0.000474702
15 *1732:B *1732:A 0
16 *1732:B *1738:A2 0.000603444
17 *1735:A *1735:B 7.32173e-05
18 *1735:A *1735:C 9.90367e-05
19 *1737:A *704:16 5.33005e-05
20 *1741:A *1736:B 0.000374664
21 *1741:A *1741:C 9.90431e-05
22 *1741:A *1743:A 0.000197901
23 *1744:A *1744:B 1.97695e-05
24 *1744:A *1747:B 0
25 *1747:A *1747:B 2.32013e-05
26 *1747:A *1749:B 0.000178586
27 *1749:A *1749:B 5.52238e-05
28 *701:14 *1731:A1 5.33005e-05
29 *701:14 *1749:B 0
30 *701:14 *1755:A2 0.000137962
31 *701:14 *1755:B2 6.51946e-05
32 *701:14 *1757:B2 3.06376e-05
33 *701:22 *1736:B 0.000155476
34 *701:22 *1738:A2 2.24646e-05
35 *701:22 *703:8 0.000227743
36 *701:24 *1738:A2 0.000191877
37 *1111:A *701:20 0
38 *1111:A *701:22 0
39 *1727:A2 *1747:A 5.37963e-05
40 *1727:A2 *701:14 0
41 *1772:D *1732:B 0
42 *1773:D *1735:A 1.21258e-05
43 *1776:D *1744:A 5.85274e-05
44 *1777:CLK *1744:A 3.31648e-05
45 *1777:D *1744:A 0
46 *1777:D *701:18 0
47 *1777:RESET_B *701:18 1.91512e-05
48 *1777:RESET_B *701:20 0.000117487
49 *1778:CLK *701:16 9.25014e-06
50 *1778:CLK *701:18 0.00020112
51 *1778:CLK *701:20 0.000191877
52 *1778:D *1749:A 5.52238e-05
53 *50:146 *1737:A 4.00276e-06
54 *72:10 *701:22 0.000146941
55 *72:12 *701:22 0.000193599
56 *72:14 *701:22 9.25014e-06
57 *72:14 *701:24 0.000191877
58 *72:18 *1732:B 0.000201127
59 *72:18 *701:24 9.25014e-06
60 *72:129 *701:20 0.000153769
61 *72:129 *701:22 9.54385e-05
62 *693:14 *701:14 1.6959e-05
63 *693:14 *701:16 1.37292e-05
64 *697:10 *701:14 0.000322467
65 *697:29 *701:14 8.13094e-05
66 *698:8 *701:14 2.91794e-05
*RES
1 *1731:Y *701:14 26.1515 
2 *701:14 *701:16 1.01486 
3 *701:16 *701:18 3.53962 
4 *701:18 *701:20 6.06439 
5 *701:20 *701:22 7.74756 
6 *701:22 *701:24 3.53962 
7 *701:24 *1732:B 23.7258 
8 *701:24 *1737:A 14.5426 
9 *701:22 *1735:A 15.6812 
10 *701:20 *1741:A 23.0822 
11 *701:18 *1744:A 21.399 
12 *701:16 *1749:A 14.5426 
13 *701:14 *1747:A 17.2654 
*END

*D_NET *702 0.00221165
*CONN
*I *1735:B I *D sky130_fd_sc_hd__nor3_1
*I *1733:Y O *D sky130_fd_sc_hd__nor2_1
*CAP
1 *1735:B 0.000663756
2 *1733:Y 0.000663756
3 *1735:B *1733:B 0.000291056
4 *1735:B *1734:B 0
5 *1735:B *1735:C 3.48705e-05
6 *1735:B *1738:A1 0
7 *1735:B *1739:A 0.000134549
8 *1735:B *1741:B 0
9 *1735:B *704:16 7.88759e-05
10 *1735:B *706:12 5.52238e-05
11 *1735:B *736:21 7.29667e-05
12 *1735:B *736:29 2.17421e-05
13 *1735:B *744:8 5.71472e-05
14 *1735:B *744:21 1.78447e-05
15 *1735:A *1735:B 7.32173e-05
16 *1773:CLK *1735:B 2.89114e-05
17 *1773:D *1735:B 1.77301e-05
*RES
1 *1733:Y *1735:B 49.8278 
*END

*D_NET *703 0.00469038
*CONN
*I *1736:B I *D sky130_fd_sc_hd__xnor2_1
*I *1735:C I *D sky130_fd_sc_hd__nor3_1
*I *1738:A2 I *D sky130_fd_sc_hd__a21oi_1
*I *1734:X O *D sky130_fd_sc_hd__and2_0
*CAP
1 *1736:B 0.000359076
2 *1735:C 4.95234e-05
3 *1738:A2 0.000508138
4 *1734:X 0
5 *703:8 0.000669543
6 *703:6 0.000470958
7 *1736:B *1725:A 0
8 *1736:B *1734:A 1.28226e-05
9 *1736:B *1741:C 0.00010096
10 *1736:B *1743:A 1.34703e-05
11 *1736:B *704:16 6.62983e-05
12 *1738:A2 *1723:A 0
13 *1738:A2 *1738:A1 1.74352e-05
14 *1738:A2 *1738:B1 9.90367e-05
15 *1738:A2 *1741:B 7.61932e-05
16 *703:8 *1723:A 0
17 *703:8 *1725:A 0
18 *703:8 *1725:B 0
19 *1732:B *1738:A2 0.000603444
20 *1735:A *1735:C 9.90367e-05
21 *1735:B *1735:C 3.48705e-05
22 *1741:A *1736:B 0.000374664
23 *1772:D *1738:A2 3.18676e-05
24 *1773:D *1735:C 0.000126629
25 *1774:D *1738:A2 0.000105689
26 *1775:D *1736:B 0.000122091
27 *50:146 *1738:A2 0
28 *72:8 *1736:B 0.000151071
29 *72:22 *1738:A2 0
30 *701:22 *1736:B 0.000155476
31 *701:22 *1738:A2 2.24646e-05
32 *701:22 *703:8 0.000227743
33 *701:24 *1738:A2 0.000191877
*RES
1 *1734:X *703:6 13.8 
2 *703:6 *703:8 3.96042 
3 *703:8 *1738:A2 32.81 
4 *703:8 *1735:C 16.8198 
5 *703:6 *1736:B 29.4189 
*END

*D_NET *704 0.00251051
*CONN
*I *1737:B I *D sky130_fd_sc_hd__nor2_1
*I *1736:Y O *D sky130_fd_sc_hd__xnor2_1
*CAP
1 *1737:B 0
2 *1736:Y 0.00075319
3 *704:16 0.00075319
4 *704:16 *1734:A 0.000115244
5 *704:16 *1736:A 3.14048e-05
6 *704:16 *1741:B 0.000519203
7 *704:16 *1743:A 0
8 *704:16 *706:12 0.000139802
9 *704:16 *736:21 0
10 *1735:B *704:16 7.88759e-05
11 *1736:B *704:16 6.62983e-05
12 *1737:A *704:16 5.33005e-05
13 *50:146 *704:16 0
*RES
1 *1736:Y *704:16 43.0526 
2 *704:16 *1737:B 9.3 
*END

*D_NET *705 0.00181435
*CONN
*I *1741:B I *D sky130_fd_sc_hd__nor3_1
*I *1738:Y O *D sky130_fd_sc_hd__a21oi_1
*CAP
1 *1741:B 0.00042017
2 *1738:Y 0.00042017
3 *1741:B *1738:A1 5.19842e-06
4 *1741:B *1738:B1 0.00029085
5 *1741:B *706:12 0
6 *1741:B *744:21 0
7 *1741:B *745:10 8.25644e-05
8 *1735:B *1741:B 0
9 *1738:A2 *1741:B 7.61932e-05
10 *50:127 *1741:B 0
11 *50:129 *1741:B 0
12 *704:16 *1741:B 0.000519203
*RES
1 *1738:Y *1741:B 45.3724 
*END

*D_NET *706 0.00306791
*CONN
*I *1740:A I *D sky130_fd_sc_hd__clkinv_1
*I *1743:B I *D sky130_fd_sc_hd__xor2_1
*I *1739:Y O *D sky130_fd_sc_hd__nand4_1
*CAP
1 *1740:A 5.27451e-05
2 *1743:B 0.00036183
3 *1739:Y 0.000426815
4 *706:12 0.00084139
5 *1740:A *1736:A 0
6 *1740:A *1743:A 4.43256e-05
7 *1740:A *707:14 9.60875e-05
8 *1743:B *1743:A 0.000410336
9 *1743:B *1744:B 9.06125e-05
10 *706:12 *1736:A 0
11 *706:12 *1739:A 0.000222666
12 *706:12 *1741:C 0
13 *706:12 *736:21 2.84494e-05
14 *706:12 *744:21 0
15 *706:12 *744:32 0
16 *706:12 *746:17 2.94103e-05
17 *1722:A2 *706:12 0.000100922
18 *1735:B *706:12 5.52238e-05
19 *1741:B *706:12 0
20 *1776:D *1743:B 0.000102895
21 *50:127 *706:12 0
22 *693:14 *1740:A 0
23 *693:14 *1743:B 6.4403e-05
24 *704:16 *706:12 0.000139802
*RES
1 *1739:Y *706:12 32.0129 
2 *706:12 *1743:B 24.1268 
3 *706:12 *1740:A 11.1812 
*END

*D_NET *707 0.00309075
*CONN
*I *1745:C I *D sky130_fd_sc_hd__nand3_1
*I *1742:B I *D sky130_fd_sc_hd__nand2_1
*I *1741:C I *D sky130_fd_sc_hd__nor3_1
*I *1740:Y O *D sky130_fd_sc_hd__clkinv_1
*CAP
1 *1745:C 3.64675e-05
2 *1742:B 0.000157921
3 *1741:C 0.000180898
4 *1740:Y 0.000141598
5 *707:18 0.00038046
6 *707:14 0.000219707
7 *1741:C *746:17 0
8 *1742:B *1746:B 0.000349776
9 *1742:B *1748:B 5.33005e-05
10 *1742:B *719:8 5.33005e-05
11 *1742:B *746:17 0
12 *1745:C *747:19 3.99614e-06
13 *707:14 *1722:B1 6.05161e-06
14 *707:14 *746:17 0.000153762
15 *707:14 *747:19 5.04589e-05
16 *707:18 *747:8 6.05161e-06
17 *707:18 *747:19 8.53409e-05
18 *1722:A2 *1745:C 0
19 *1722:A2 *707:14 0
20 *1736:B *1741:C 0.00010096
21 *1740:A *707:14 9.60875e-05
22 *1741:A *1741:C 9.90431e-05
23 *50:121 *1742:B 0.000255045
24 *50:125 *1741:C 0.000112115
25 *50:125 *1742:B 0.000100501
26 *50:127 *1741:C 8.39096e-05
27 *693:14 *707:14 0.000133518
28 *693:14 *707:18 0.000230482
29 *706:12 *1741:C 0
*RES
1 *1740:Y *707:14 24.7604 
2 *707:14 *707:18 7.51982 
3 *707:18 *1741:C 21.1763 
4 *707:18 *1742:B 22.2901 
5 *707:14 *1745:C 10.3149 
*END

*D_NET *708 0.000753584
*CONN
*I *1746:B I *D sky130_fd_sc_hd__xor2_1
*I *1742:Y O *D sky130_fd_sc_hd__nand2_1
*CAP
1 *1746:B 0.000159459
2 *1742:Y 0.000159459
3 *1746:B *1747:B 5.8955e-05
4 *1746:B *1748:B 2.59355e-05
5 *1742:B *1746:B 0.000349776
*RES
1 *1742:Y *1746:B 34.407 
*END

*D_NET *709 0.0015856
*CONN
*I *1744:B I *D sky130_fd_sc_hd__nor2_1
*I *1743:X O *D sky130_fd_sc_hd__xor2_1
*CAP
1 *1744:B 0.000336898
2 *1743:X 0.000336898
3 *1744:B *1743:A 1.32552e-05
4 *1743:B *1744:B 9.06125e-05
5 *1744:A *1744:B 1.97695e-05
6 *1776:D *1744:B 0.000762603
7 *1777:CLK *1744:B 2.55587e-05
8 *1777:RESET_B *1744:B 0
*RES
1 *1743:X *1744:B 32.511 
*END

*D_NET *710 0.00139269
*CONN
*I *1748:B I *D sky130_fd_sc_hd__xnor2_1
*I *1745:Y O *D sky130_fd_sc_hd__nand3_1
*CAP
1 *1748:B 0.000296722
2 *1745:Y 0.000296722
3 *1748:B *1742:A 0.00056263
4 *1748:B *1747:B 4.58096e-05
5 *1748:B *1749:B 0
6 *1748:B *719:8 0.00011157
7 *1742:B *1748:B 5.33005e-05
8 *1746:B *1748:B 2.59355e-05
*RES
1 *1745:Y *1748:B 39.6793 
*END

*D_NET *711 0.00164902
*CONN
*I *1747:B I *D sky130_fd_sc_hd__nor2_1
*I *1746:X O *D sky130_fd_sc_hd__xor2_1
*CAP
1 *1747:B 0.00049598
2 *1746:X 0.00049598
3 *1747:B *1742:A 8.41284e-06
4 *1747:B *1745:B 8.49861e-06
5 *1747:B *1749:B 8.58429e-05
6 *1747:B *746:17 0
7 *1747:B *747:8 1.27295e-05
8 *1747:B *747:19 4.55516e-05
9 *1727:A2 *1747:B 0
10 *1744:A *1747:B 0
11 *1746:B *1747:B 5.8955e-05
12 *1747:A *1747:B 2.32013e-05
13 *1748:B *1747:B 4.58096e-05
14 *1777:D *1747:B 5.68722e-05
15 *1778:D *1747:B 0.00031119
16 *693:14 *1747:B 0
*RES
1 *1746:X *1747:B 43.7882 
*END

*D_NET *712 0.00116222
*CONN
*I *1749:B I *D sky130_fd_sc_hd__nor2_1
*I *1748:Y O *D sky130_fd_sc_hd__xnor2_1
*CAP
1 *1749:B 0.000254472
2 *1748:Y 0.000254472
3 *1749:B *719:8 0
4 *1749:B *719:10 0
5 *1727:A2 *1749:B 4.46231e-06
6 *1747:A *1749:B 0.000178586
7 *1747:B *1749:B 8.58429e-05
8 *1748:B *1749:B 0
9 *1749:A *1749:B 5.52238e-05
10 *1778:CLK *1749:B 5.52302e-05
11 *1778:D *1749:B 0.000107022
12 *50:121 *1749:B 0.000157906
13 *693:14 *1749:B 9.00795e-06
14 *701:14 *1749:B 0
*RES
1 *1748:Y *1749:B 37.8971 
*END

*D_NET *713 0.00330141
*CONN
*I *1757:B2 I *D sky130_fd_sc_hd__o22ai_1
*I *1755:B2 I *D sky130_fd_sc_hd__o22ai_1
*I *1750:Y O *D sky130_fd_sc_hd__nand2_1
*CAP
1 *1757:B2 0.000118489
2 *1755:B2 0.000396191
3 *1750:Y 5.57695e-05
4 *713:8 0.000570449
5 *1755:B2 *1706:A 0.000577676
6 *1755:B2 *1727:A1 4.99405e-05
7 *1755:B2 *1752:B1 7.66995e-05
8 *1755:B2 *1755:A2 4.08555e-06
9 *1755:B2 *1757:B1 9.41642e-05
10 *1755:B2 *722:12 0.000222885
11 *1755:B2 *722:14 3.34295e-05
12 *1755:B2 *735:12 0
13 *1757:B2 *1755:A2 0.000213351
14 *1757:B2 *1757:A2 7.15521e-05
15 *1757:B2 *732:22 0.000227029
16 *1752:A2 *713:8 1.68409e-05
17 *1789:D *1755:B2 3.98404e-05
18 *73:26 *713:8 0.000181374
19 *691:16 *1757:B2 1.02532e-05
20 *691:16 *713:8 2.1768e-05
21 *696:14 *1755:B2 0
22 *697:10 *1755:B2 5.30637e-06
23 *698:8 *1755:B2 7.90803e-05
24 *698:25 *1755:B2 5.41794e-05
25 *698:25 *1757:B2 6.94101e-05
26 *698:50 *713:8 1.58163e-05
27 *701:14 *1755:B2 6.51946e-05
28 *701:14 *1757:B2 3.06376e-05
*RES
1 *1750:Y *713:8 16.2505 
2 *713:8 *1755:B2 38.9139 
3 *713:8 *1757:B2 19.8644 
*END

*D_NET *714 0.00398051
*CONN
*I *1753:A2 I *D sky130_fd_sc_hd__a21oi_1
*I *1757:A2 I *D sky130_fd_sc_hd__o22ai_1
*I *1755:A2 I *D sky130_fd_sc_hd__o22ai_1
*I *1751:Y O *D sky130_fd_sc_hd__a21oi_1
*CAP
1 *1753:A2 0.00013055
2 *1757:A2 4.36886e-05
3 *1755:A2 0.000590754
4 *1751:Y 0
5 *714:14 0.0010355
6 *714:6 0.00053161
7 *1753:A2 *1707:SLEEP 0
8 *1753:A2 *1751:A1 0
9 *1753:A2 *1751:B1 8.11299e-05
10 *1753:A2 *1753:A1 4.81734e-05
11 *1753:A2 *752:55 0
12 *1755:A2 *1753:B1 9.54798e-06
13 *1755:A2 *732:22 0
14 *1755:A2 *735:12 5.58875e-06
15 *1757:A2 *1757:A1 3.34366e-05
16 *714:14 *1719:A1 0.000166168
17 *714:14 *1720:B1 6.27272e-06
18 *714:14 *1731:A1 1.07719e-05
19 *714:14 *1751:B1 0.000152795
20 *714:14 *1755:A1 4.98055e-06
21 *714:14 *1757:A1 0.000175158
22 *714:14 *1758:A2 1.05729e-05
23 *714:14 *1758:B1 2.59355e-05
24 *714:14 *720:10 5.83233e-05
25 *1112:A *714:14 4.09488e-06
26 *1755:B2 *1755:A2 4.08555e-06
27 *1757:B2 *1755:A2 0.000213351
28 *1757:B2 *1757:A2 7.15521e-05
29 *1758:A3 *714:14 2.05612e-05
30 *1789:D *1755:A2 1.02504e-05
31 *1790:D *714:14 5.47476e-06
32 *1790:RESET_B *714:14 2.44286e-05
33 *50:443 *714:14 8.48609e-05
34 *73:16 *1757:A2 4.038e-06
35 *690:18 *714:14 8.52174e-05
36 *691:16 *1753:A2 6.62841e-05
37 *691:16 *714:14 0
38 *697:29 *1755:A2 4.00025e-05
39 *697:29 *1757:A2 1.52978e-05
40 *697:29 *714:14 7.20884e-05
41 *701:14 *1755:A2 0.000137962
*RES
1 *1751:Y *714:6 13.8 
2 *714:6 *714:14 24.0001 
3 *714:14 *1755:A2 25.7484 
4 *714:14 *1757:A2 15.2357 
5 *714:6 *1753:A2 18.0327 
*END

*D_NET *715 0.0022829
*CONN
*I *1753:B1 I *D sky130_fd_sc_hd__a21oi_1
*I *1752:Y O *D sky130_fd_sc_hd__a21oi_1
*CAP
1 *1753:B1 0.000457729
2 *1752:Y 0.000457729
3 *1753:B1 *1720:B1 2.49484e-05
4 *1753:B1 *1752:B1 5.33005e-05
5 *1753:B1 *1755:A1 0.000768942
6 *1753:B1 *1758:A2 1.90936e-05
7 *1753:B1 *722:12 0
8 *1753:B1 *735:12 5.67771e-05
9 *1755:A2 *1753:B1 9.54798e-06
10 *1788:D *1753:B1 0.000151649
11 *1788:RESET_B *1753:B1 0
12 *1789:D *1753:B1 0.000213926
13 *73:26 *1753:B1 1.40306e-05
14 *691:16 *1753:B1 5.52238e-05
*RES
1 *1752:Y *1753:B1 44.9021 
*END

*D_NET *716 0.00156985
*CONN
*I *1755:B1 I *D sky130_fd_sc_hd__o22ai_1
*I *1754:Y O *D sky130_fd_sc_hd__xnor2_1
*CAP
1 *1755:B1 0.000263195
2 *1754:Y 0.000263195
3 *1755:B1 *1713:B1 0.000130718
4 *1755:B1 *722:12 0.000296589
5 *1755:B1 *734:10 2.90075e-05
6 *1789:CLK *1755:B1 7.77652e-05
7 *1789:D *1755:B1 0.000458447
8 *1790:D *1755:B1 5.09369e-05
*RES
1 *1754:Y *1755:B1 40.3971 
*END

*D_NET *717 0.00160576
*CONN
*I *1757:B1 I *D sky130_fd_sc_hd__o22ai_1
*I *1756:Y O *D sky130_fd_sc_hd__xnor2_1
*CAP
1 *1757:B1 0.000272485
2 *1756:Y 0.000272485
3 *1757:B1 *1719:A1 5.33005e-05
4 *1757:B1 *1752:B1 0.000120456
5 *1757:B1 *726:42 0
6 *1757:B1 *732:22 0.000157072
7 *1752:A2 *1757:B1 3.28672e-05
8 *1755:B2 *1757:B1 9.41642e-05
9 *73:26 *1757:B1 0
10 *690:18 *1757:B1 0.000474766
11 *691:16 *1757:B1 0.000128161
*RES
1 *1756:Y *1757:B1 39.2337 
*END

*D_NET *718 0.00240099
*CONN
*I *1759:C1 I *D sky130_fd_sc_hd__o311a_1
*I *1758:Y O *D sky130_fd_sc_hd__o31ai_1
*CAP
1 *1759:C1 0.00064211
2 *1758:Y 0.00064211
3 *1759:C1 *1705:A2 0.000139907
4 *1759:C1 *1706:B 4.65142e-05
5 *1759:C1 *1731:A1 0
6 *1759:C1 *1757:A1 3.80953e-06
7 *1759:C1 *731:16 1.32552e-05
8 *1759:C1 *752:14 0.000133363
9 *1759:C1 *753:40 1.67698e-05
10 *1758:A3 *1759:C1 9.41642e-05
11 *1789:RESET_B *1759:C1 0
12 *1790:D *1759:C1 0.000177821
13 *1791:D *1759:C1 0.000308469
14 *73:6 *1759:C1 4.70078e-05
15 *73:12 *1759:C1 4.48863e-05
16 *697:29 *1759:C1 9.08061e-05
*RES
1 *1758:Y *1759:C1 42.511 
*END

*D_NET *719 0.00141958
*CONN
*I *1748:A I *D sky130_fd_sc_hd__xnor2_1
*I *1727:A1 I *D sky130_fd_sc_hd__o21ai_0
*I *1726:A1 I *D sky130_fd_sc_hd__o21a_1
*I *1692:Y O *D sky130_fd_sc_hd__clkinv_1
*CAP
1 *1748:A 0
2 *1727:A1 0.000141555
3 *1726:A1 0
4 *1692:Y 0.000101926
5 *719:10 0.000198383
6 *719:8 0.000158755
7 *1727:A1 *1706:A 0
8 *1727:A1 *1706:B 4.0342e-06
9 *719:8 *1692:A 5.71472e-05
10 *719:8 *1706:B 0.000101056
11 *719:8 *1742:A 0.00010096
12 *719:10 *1706:B 1.40131e-05
13 *1726:B1 *1727:A1 8.17614e-05
14 *1727:A2 *1727:A1 2.47833e-05
15 *1742:B *719:8 5.33005e-05
16 *1748:B *719:8 0.00011157
17 *1749:B *719:8 0
18 *1749:B *719:10 0
19 *1755:B2 *1727:A1 4.99405e-05
20 *693:14 *1727:A1 1.32552e-05
21 *693:14 *719:10 1.92789e-05
22 *696:14 *1727:A1 4.60342e-05
23 *697:10 *1727:A1 0.00014183
*RES
1 *1692:Y *719:8 15.1911 
2 *719:8 *719:10 1.8812 
3 *719:10 *1726:A1 9.3 
4 *719:10 *1727:A1 15.7852 
5 *719:8 *1748:A 9.3 
*END

*D_NET *720 0.00505024
*CONN
*I *1757:A1 I *D sky130_fd_sc_hd__o22ai_1
*I *1758:A1 I *D sky130_fd_sc_hd__o31ai_1
*I *1713:C1 I *D sky130_fd_sc_hd__o211ai_1
*I *1756:A I *D sky130_fd_sc_hd__xnor2_1
*I *1693:Y O *D sky130_fd_sc_hd__clkinv_1
*CAP
1 *1757:A1 0.000278325
2 *1758:A1 0
3 *1713:C1 0.00028861
4 *1756:A 9.47012e-05
5 *1693:Y 0.000196272
6 *720:20 0.00061208
7 *720:12 0.000228769
8 *720:10 0.000474597
9 *1713:C1 *1694:A 9.37994e-06
10 *1713:C1 *1713:A2 0
11 *1713:C1 *1713:B1 0.000441511
12 *1713:C1 *1720:A1 6.05161e-06
13 *1713:C1 *722:12 0.000215021
14 *1713:C1 *726:8 0
15 *1756:A *1709:B 0
16 *1756:A *1716:B 6.05161e-06
17 *1756:A *1752:B1 1.56e-05
18 *1756:A *722:12 4.6687e-05
19 *1756:A *726:8 0
20 *1757:A1 *1755:A1 1.721e-05
21 *1757:A1 *731:16 0.000251426
22 *1757:A1 *732:22 3.87848e-05
23 *720:10 *1706:A 2.44318e-05
24 *720:10 *1719:A1 3.87848e-05
25 *720:10 *1750:A 0
26 *720:10 *1752:A1 4.53834e-05
27 *720:10 *1755:A1 2.58997e-05
28 *720:10 *735:12 0.000413352
29 *720:20 *1758:A2 0.000153572
30 *1757:A2 *1757:A1 3.34366e-05
31 *1759:C1 *1757:A1 3.80953e-06
32 *1789:RESET_B *1757:A1 0.000217798
33 *1790:D *1713:C1 5.54856e-05
34 *1790:D *1757:A1 3.80414e-05
35 *1790:D *720:20 3.37242e-05
36 *1790:RESET_B *1757:A1 0.000129379
37 *1790:RESET_B *720:20 1.28904e-05
38 *73:12 *1757:A1 8.13599e-05
39 *73:16 *1757:A1 5.80706e-06
40 *73:26 *720:10 0.0001399
41 *690:18 *1756:A 2.89016e-05
42 *690:18 *720:20 0.000113729
43 *698:50 *1757:A1 0
44 *714:14 *1757:A1 0.000175158
45 *714:14 *720:10 5.83233e-05
*RES
1 *1693:Y *720:10 22.1664 
2 *720:10 *720:12 4.5 
3 *720:12 *720:20 11.5545 
4 *720:20 *1756:A 16.8198 
5 *720:20 *1713:C1 26.0773 
6 *720:12 *1758:A1 9.3 
7 *720:10 *1757:A1 34.904 
*END

*D_NET *721 0.00251401
*CONN
*I *1755:A1 I *D sky130_fd_sc_hd__o22ai_1
*I *1694:Y O *D sky130_fd_sc_hd__clkinv_1
*CAP
1 *1755:A1 0.000462257
2 *1694:Y 0.000462257
3 *1755:A1 *1720:A2 7.0324e-05
4 *1755:A1 *1751:B1 4.60857e-05
5 *1755:A1 *1753:A1 9.56579e-05
6 *1755:A1 *722:12 5.88068e-05
7 *1755:A1 *733:14 4.43299e-05
8 *1755:A1 *735:12 0.000129868
9 *1753:B1 *1755:A1 0.000768942
10 *1757:A1 *1755:A1 1.721e-05
11 *1790:RESET_B *1755:A1 0.000176964
12 *50:443 *1755:A1 0.000145226
13 *67:12 *1755:A1 0
14 *674:12 *1755:A1 0
15 *691:16 *1755:A1 5.19842e-06
16 *714:14 *1755:A1 4.98055e-06
17 *720:10 *1755:A1 2.58997e-05
*RES
1 *1694:Y *1755:A1 47.9219 
*END

*D_NET *722 0.0135083
*CONN
*I *1700:S I *D sky130_fd_sc_hd__mux2_1
*I *1697:S I *D sky130_fd_sc_hd__mux2_1
*I *1706:A I *D sky130_fd_sc_hd__nand2_1
*I *1704:S I *D sky130_fd_sc_hd__mux2_1
*I *1702:S I *D sky130_fd_sc_hd__mux2_1
*I *1699:S I *D sky130_fd_sc_hd__mux2_1
*I *1701:S I *D sky130_fd_sc_hd__mux2_1
*I *1698:S I *D sky130_fd_sc_hd__mux2_1
*I *1703:S I *D sky130_fd_sc_hd__mux2_1
*I *1696:Y O *D sky130_fd_sc_hd__nand2_1
*CAP
1 *1700:S 0
2 *1697:S 0.000464059
3 *1706:A 0.000271409
4 *1704:S 0
5 *1702:S 0.00018517
6 *1699:S 0.000118136
7 *1701:S 3.37271e-05
8 *1698:S 3.23196e-05
9 *1703:S 0.00032634
10 *1696:Y 0.000121401
11 *722:105 0.000660893
12 *722:48 0.000151863
13 *722:46 0.000455078
14 *722:35 0.000948766
15 *722:29 0.000694718
16 *722:14 0.000469859
17 *722:12 0.00112988
18 *722:6 0.00108136
19 *1697:S *1700:A1 5.80706e-06
20 *1697:S *755:8 0.00013949
21 *1698:S *1698:A1 2.59355e-05
22 *1699:S *1699:A1 2.44318e-05
23 *1699:S *1715:A0 0
24 *1702:S *732:22 0
25 *1703:S *1703:A1 0
26 *1703:S *1716:B 0
27 *1706:A *1706:B 2.78426e-05
28 *1706:A *1717:A2 6.05161e-06
29 *1706:A *1717:B1 5.71472e-05
30 *1706:A *1750:A 5.65955e-05
31 *1706:A *735:12 0.000131439
32 *722:6 *1720:A2 0
33 *722:12 *1694:A 0
34 *722:12 *1700:A1 0
35 *722:12 *1713:A1 0
36 *722:12 *1716:B 0
37 *722:12 *1720:A2 0
38 *722:12 *1720:B1 6.02056e-05
39 *722:14 *1704:A1 4.58192e-05
40 *722:14 *1716:B 0
41 *722:29 *1704:A1 5.30637e-06
42 *722:29 *1717:A1 0
43 *722:29 *1717:A2 0
44 *722:35 *1698:A1 0
45 *722:35 *1704:A1 3.67257e-05
46 *722:35 *756:8 2.27416e-05
47 *722:35 *761:8 1.05947e-05
48 *722:46 *1699:A1 8.40106e-05
49 *722:46 *1711:B 6.43583e-05
50 *722:46 *732:22 0
51 *722:105 *1696:B 0
52 *1096:CLK *1697:S 0
53 *1096:CLK *722:105 0.000265726
54 *1481:CLK *1697:S 0
55 *1495:D *1697:S 4.84703e-05
56 *1699:A0 *1699:S 0.000215102
57 *1699:A0 *1701:S 9.60875e-05
58 *1704:A0 *1703:S 0
59 *1713:C1 *722:12 0.000215021
60 *1718:A2 *722:46 0
61 *1727:A1 *1706:A 0
62 *1750:B *1706:A 0.000145831
63 *1753:B1 *722:12 0
64 *1755:A1 *722:12 5.88068e-05
65 *1755:B1 *722:12 0.000296589
66 *1755:B2 *1706:A 0.000577676
67 *1755:B2 *722:12 0.000222885
68 *1755:B2 *722:14 3.34295e-05
69 *1756:A *722:12 4.6687e-05
70 *1767:CLK *722:35 0
71 *1767:RESET_B *722:35 0
72 *1768:CLK *722:35 0
73 *1768:D *722:35 0.000156926
74 *1769:CLK *1706:A 9.80489e-05
75 *1769:D *1706:A 3.18676e-05
76 *1777:CLK *1703:S 0
77 *1777:CLK *722:29 0
78 *1777:CLK *722:35 0
79 *1788:D *722:12 1.80952e-05
80 *1789:D *722:12 3.94422e-05
81 *1790:D *722:12 2.47697e-05
82 *50:467 *1697:S 0
83 *67:12 *722:6 0.000115611
84 *67:12 *722:12 0.00015
85 *67:12 *722:105 0.000268682
86 *67:18 *1702:S 0.000372962
87 *67:20 *1702:S 2.24646e-05
88 *67:20 *722:46 0.000397134
89 *67:24 *722:35 0.000230158
90 *67:24 *722:46 0.000395172
91 *67:35 *722:35 0
92 *67:70 *1701:S 5.52238e-05
93 *71:10 *1702:S 5.8955e-05
94 *71:14 *1702:S 5.33005e-05
95 *73:26 *1706:A 0.000208648
96 *73:26 *722:35 0
97 *74:16 *1697:S 5.39166e-06
98 *74:18 *1697:S 1.57931e-05
99 *74:20 *1697:S 9.00795e-06
100 *471:18 *1697:S 1.72894e-05
101 *674:12 *1697:S 0.000130698
102 *674:12 *722:12 0.000275094
103 *674:12 *722:105 0
104 *696:14 *1703:S 0.000149302
105 *697:10 *1706:A 1.20767e-05
106 *720:10 *1706:A 2.44318e-05
*RES
1 *1696:Y *722:6 13.4584 
2 *722:6 *722:12 31.8516 
3 *722:12 *722:14 3.11883 
4 *722:14 *1703:S 22.0179 
5 *722:14 *722:29 5.81189 
6 *722:29 *722:35 24.005 
7 *722:35 *1698:S 14.5426 
8 *722:35 *722:46 13.6387 
9 *722:46 *722:48 4.5 
10 *722:48 *1701:S 10.6119 
11 *722:48 *1699:S 13.4584 
12 *722:46 *1702:S 21.4486 
13 *722:29 *1704:S 9.3 
14 *722:12 *1706:A 28.6268 
15 *722:6 *722:105 17.7129 
16 *722:105 *1697:S 33.5229 
17 *722:105 *1700:S 9.3 
*END

*D_NET *723 0.00201206
*CONN
*I *1706:B I *D sky130_fd_sc_hd__nand2_1
*I *1705:Y O *D sky130_fd_sc_hd__o21ai_0
*CAP
1 *1706:B 0.000617032
2 *1705:Y 0.000617032
3 *1706:B *1692:A 9.24825e-05
4 *1706:B *1705:A1 5.52302e-05
5 *1706:B *1705:A2 3.30237e-05
6 *1706:B *1705:B1 0
7 *1706:B *1731:A1 3.72932e-05
8 *1706:B *1731:A2 0
9 *1706:B *753:21 3.98131e-05
10 *1706:A *1706:B 2.78426e-05
11 *1727:A1 *1706:B 4.0342e-06
12 *1759:C1 *1706:B 4.65142e-05
13 *1769:D *1706:B 0.000232399
14 *1769:RESET_B *1706:B 9.42929e-05
15 *50:111 *1706:B 0
16 *50:115 *1706:B 0
17 *50:117 *1706:B 0
18 *50:121 *1706:B 0
19 *719:8 *1706:B 0.000101056
20 *719:10 *1706:B 1.40131e-05
*RES
1 *1705:Y *1706:B 49.3204 
*END

*D_NET *724 0.00121294
*CONN
*I *1720:B1 I *D sky130_fd_sc_hd__a31oi_1
*I *1707:X O *D sky130_fd_sc_hd__lpflow_isobufsrc_1
*CAP
1 *1720:B1 0.000379985
2 *1707:X 0.000379985
3 *1720:B1 *732:22 0
4 *1720:B1 *733:14 0.000207735
5 *1112:A *1720:B1 3.90782e-06
6 *1753:B1 *1720:B1 2.49484e-05
7 *1788:D *1720:B1 9.53267e-05
8 *674:12 *1720:B1 3.34366e-05
9 *691:16 *1720:B1 2.11419e-05
10 *714:14 *1720:B1 6.27272e-06
11 *722:12 *1720:B1 6.02056e-05
*RES
1 *1707:X *1720:B1 38.0501 
*END

*D_NET *725 0.000840309
*CONN
*I *1712:C1 I *D sky130_fd_sc_hd__a211oi_1
*I *1708:Y O *D sky130_fd_sc_hd__nor3_1
*CAP
1 *1712:C1 0.000165334
2 *1708:Y 0.000165334
3 *1712:C1 *732:22 0
4 *1712:C1 *733:16 0.000134719
5 *1712:C1 *733:29 6.92571e-05
6 *1712:C1 *733:31 2.61337e-05
7 *1712:C1 *733:48 3.69047e-06
8 *1712:C1 *734:20 0.00017267
9 *1718:A2 *1712:C1 0
10 *1718:B1 *1712:C1 6.05161e-06
11 *690:18 *1712:C1 9.71197e-05
*RES
1 *1708:Y *1712:C1 34.5555 
*END

*D_NET *726 0.00405211
*CONN
*I *1756:B I *D sky130_fd_sc_hd__xnor2_1
*I *1717:A2 I *D sky130_fd_sc_hd__o21ai_0
*I *1758:A2 I *D sky130_fd_sc_hd__o31ai_1
*I *1713:A2 I *D sky130_fd_sc_hd__o211ai_1
*I *1709:Y O *D sky130_fd_sc_hd__nand2_1
*CAP
1 *1756:B 1.3683e-05
2 *1717:A2 0.000244007
3 *1758:A2 0.000438597
4 *1713:A2 0.000285494
5 *1709:Y 0
6 *726:42 0.000306904
7 *726:8 0.000816327
8 *726:4 0.000141451
9 *1713:A2 *1694:A 4.23086e-05
10 *1713:A2 *1709:B 0.000199324
11 *1713:A2 *1713:A1 1.58163e-05
12 *1713:A2 *1713:B1 0
13 *1713:A2 *1715:S 0
14 *1713:A2 *733:16 0
15 *1717:A2 *1704:A1 0
16 *1717:A2 *1716:B 7.8327e-05
17 *1717:A2 *1717:A1 5.71472e-05
18 *1756:B *1716:B 5.52302e-05
19 *1758:A2 *732:22 0.000131185
20 *726:8 *1709:B 0.00019211
21 *726:42 *1709:A 7.69167e-05
22 *726:42 *1716:B 1.02821e-05
23 *1706:A *1717:A2 6.05161e-06
24 *1713:C1 *1713:A2 0
25 *1713:C1 *726:8 0
26 *1753:B1 *1758:A2 1.90936e-05
27 *1756:A *726:8 0
28 *1757:B1 *726:42 0
29 *1788:CLK *1713:A2 0
30 *1788:D *1713:A2 4.00276e-06
31 *1789:D *1758:A2 2.06112e-05
32 *1790:D *1758:A2 5.19935e-05
33 *1790:RESET_B *1758:A2 0.000136958
34 *50:457 *1713:A2 0.000201971
35 *73:26 *1717:A2 0.000227532
36 *73:37 *1717:A2 0
37 *690:18 *1756:B 1.56e-05
38 *690:18 *1758:A2 0
39 *690:18 *726:42 9.90431e-05
40 *714:14 *1758:A2 1.05729e-05
41 *720:20 *1758:A2 0.000153572
42 *722:29 *1717:A2 0
*RES
1 *1709:Y *726:4 9.3 
2 *726:4 *726:8 7.82922 
3 *726:8 *1713:A2 23.3421 
4 *726:8 *1758:A2 26.8696 
5 *726:4 *726:42 2.32674 
6 *726:42 *1717:A2 25.1812 
7 *726:42 *1756:B 10.0426 
*END

*D_NET *727 0.000589564
*CONN
*I *1712:B1 I *D sky130_fd_sc_hd__a211oi_1
*I *1710:Y O *D sky130_fd_sc_hd__nor3b_1
*CAP
1 *1712:B1 8.23859e-05
2 *1710:Y 8.23859e-05
3 *1712:B1 *1710:C_N 8.32242e-05
4 *1712:B1 *1718:A1 1.92789e-05
5 *1712:B1 *733:31 4.97876e-05
6 *1712:B1 *734:20 5.80706e-06
7 *1712:B1 *734:22 1.31516e-05
8 *1718:A2 *1712:B1 0.000138881
9 *1718:B1 *1712:B1 0.000114662
*RES
1 *1710:Y *1712:B1 31.7584 
*END

*D_NET *728 0.000509625
*CONN
*I *1712:A2 I *D sky130_fd_sc_hd__a211oi_1
*I *1711:Y O *D sky130_fd_sc_hd__nor2_1
*CAP
1 *1712:A2 9.72404e-05
2 *1711:Y 9.72404e-05
3 *1712:A2 *1711:A 2.14757e-05
4 *1712:A2 *757:8 4.45768e-06
5 *1718:B1 *1712:A2 0.000100625
6 *690:18 *1712:A2 0.000188586
*RES
1 *1711:Y *1712:A2 22.7832 
*END

*D_NET *729 0.00175315
*CONN
*I *1713:B1 I *D sky130_fd_sc_hd__o211ai_1
*I *1712:Y O *D sky130_fd_sc_hd__a211oi_1
*CAP
1 *1713:B1 0.000377557
2 *1712:Y 0.000377557
3 *1713:B1 *1694:A 0.000251104
4 *1713:B1 *733:48 1.13406e-05
5 *1713:B1 *734:12 0
6 *1713:B1 *734:20 1.58213e-06
7 *1713:A2 *1713:B1 0
8 *1713:C1 *1713:B1 0.000441511
9 *1755:B1 *1713:B1 0.000130718
10 *1789:CLK *1713:B1 3.81416e-06
11 *1790:D *1713:B1 0.000144632
12 *690:18 *1713:B1 1.33343e-05
*RES
1 *1712:Y *1713:B1 43.3922 
*END

*D_NET *730 0.000228777
*CONN
*I *1720:A1 I *D sky130_fd_sc_hd__a31oi_1
*I *1713:Y O *D sky130_fd_sc_hd__o211ai_1
*CAP
1 *1720:A1 8.3121e-05
2 *1713:Y 8.3121e-05
3 *1713:C1 *1720:A1 6.05161e-06
4 *1788:D *1720:A1 0
5 *674:10 *1720:A1 1.97695e-05
6 *691:16 *1720:A1 3.67142e-05
*RES
1 *1713:Y *1720:A1 21.0753 
*END

*D_NET *731 0.00435314
*CONN
*I *1720:A2 I *D sky130_fd_sc_hd__a31oi_1
*I *1758:B1 I *D sky130_fd_sc_hd__o31ai_1
*I *1750:A I *D sky130_fd_sc_hd__nand2_1
*I *1752:A1 I *D sky130_fd_sc_hd__a21oi_1
*I *1714:X O *D sky130_fd_sc_hd__lpflow_isobufsrc_1
*CAP
1 *1720:A2 0.000393461
2 *1758:B1 2.04426e-05
3 *1750:A 0.000136545
4 *1752:A1 0.000116645
5 *1714:X 0
6 *731:18 0.000313137
7 *731:16 0.000346973
8 *731:6 0.000660045
9 *1720:A2 *1751:A1 4.70078e-05
10 *1752:A1 *1719:A1 5.80706e-06
11 *731:16 *1719:A1 0.000144519
12 *731:16 *732:22 1.83776e-05
13 *731:18 *1719:A1 0.000175519
14 *1706:A *1750:A 5.65955e-05
15 *1729:A3 *1720:A2 4.42832e-05
16 *1729:A3 *731:16 2.60158e-05
17 *1750:B *1750:A 5.49544e-05
18 *1751:A2 *1720:A2 7.46964e-05
19 *1751:A2 *731:16 0.000103442
20 *1755:A1 *1720:A2 7.0324e-05
21 *1757:A1 *731:16 0.000251426
22 *1758:A3 *1758:B1 5.33005e-05
23 *1759:C1 *731:16 1.32552e-05
24 *1760:B *1720:A2 0
25 *1790:D *731:16 5.56679e-05
26 *691:16 *1720:A2 0.000571721
27 *691:16 *1750:A 4.34627e-05
28 *691:16 *731:16 0.000148903
29 *691:16 *731:18 0.000207501
30 *698:8 *1750:A 9.69119e-06
31 *698:25 *1750:A 3.46983e-05
32 *698:50 *731:16 8.34049e-05
33 *714:14 *1758:B1 2.59355e-05
34 *720:10 *1750:A 0
35 *720:10 *1752:A1 4.53834e-05
36 *722:6 *1720:A2 0
37 *722:12 *1720:A2 0
*RES
1 *1714:X *731:6 13.8 
2 *731:6 *731:16 20.3614 
3 *731:16 *731:18 3.75002 
4 *731:18 *1752:A1 16.4857 
5 *731:18 *1750:A 17.8718 
6 *731:16 *1758:B1 14.5426 
7 *731:6 *1720:A2 27.1912 
*END

*D_NET *732 0.00448792
*CONN
*I *1719:A2 I *D sky130_fd_sc_hd__o21ai_0
*I *1715:X O *D sky130_fd_sc_hd__mux2_1
*CAP
1 *1719:A2 0
2 *1715:X 0.0016267
3 *732:22 0.0016267
4 *732:22 *1699:A1 0.000195239
5 *732:22 *1708:A 0
6 *732:22 *733:14 0.000186272
7 *732:22 *733:16 0
8 *1112:A *732:22 2.35126e-05
9 *1702:S *732:22 0
10 *1712:C1 *732:22 0
11 *1720:B1 *732:22 0
12 *1751:A2 *732:22 0.000158707
13 *1752:A2 *732:22 5.52302e-05
14 *1755:A2 *732:22 0
15 *1757:A1 *732:22 3.87848e-05
16 *1757:B1 *732:22 0.000157072
17 *1757:B2 *732:22 0.000227029
18 *1758:A2 *732:22 0.000131185
19 *691:16 *732:22 4.31193e-05
20 *722:46 *732:22 0
21 *731:16 *732:22 1.83776e-05
*RES
1 *1715:X *732:22 42.6929 
2 *732:22 *1719:A2 9.3 
*END

*D_NET *733 0.00726068
*CONN
*I *1753:A1 I *D sky130_fd_sc_hd__a21oi_1
*I *1715:S I *D sky130_fd_sc_hd__mux2_1
*I *1708:B I *D sky130_fd_sc_hd__nor3_1
*I *1711:A I *D sky130_fd_sc_hd__nor2_1
*I *1716:A I *D sky130_fd_sc_hd__nor2_1
*I *1709:A I *D sky130_fd_sc_hd__nand2_1
*I *1752:B1 I *D sky130_fd_sc_hd__a21oi_1
*I *1710:C_N I *D sky130_fd_sc_hd__nor3b_1
*I *1754:A I *D sky130_fd_sc_hd__xnor2_1
*I *1788:Q O *D sky130_fd_sc_hd__dfrtp_1
*CAP
1 *1753:A1 8.26569e-05
2 *1715:S 0.000118493
3 *1708:B 0
4 *1711:A 0.000149148
5 *1716:A 0
6 *1709:A 4.71987e-05
7 *1752:B1 0.000367486
8 *1710:C_N 3.88848e-05
9 *1754:A 2.61656e-05
10 *1788:Q 0
11 *733:104 0.000128958
12 *733:69 4.71987e-05
13 *733:48 0.00050256
14 *733:31 0.000218791
15 *733:29 0.000282181
16 *733:16 0.000212479
17 *733:14 0.000692382
18 *733:6 0.000666463
19 *1709:A *1716:B 0.000202692
20 *1711:A *1711:B 4.81157e-05
21 *1711:A *734:20 1.13406e-05
22 *1711:A *757:8 0.000103004
23 *1715:S *1708:A 8.23111e-05
24 *1715:S *1715:A1 3.32631e-05
25 *1752:B1 *1709:B 5.80706e-06
26 *1752:B1 *1716:B 0.000313241
27 *1753:A1 *1751:B1 0.000105206
28 *1754:A *734:20 5.52238e-05
29 *733:14 *1751:B1 4.43299e-05
30 *733:16 *1708:A 1.0562e-05
31 *733:16 *1708:C 7.40153e-05
32 *733:31 *734:20 5.90443e-06
33 *733:48 *1709:B 7.0758e-05
34 *733:104 *1708:A 7.05143e-06
35 *1712:A2 *1711:A 2.14757e-05
36 *1712:B1 *1710:C_N 8.32242e-05
37 *1712:B1 *733:31 4.97876e-05
38 *1712:C1 *733:16 0.000134719
39 *1712:C1 *733:29 6.92571e-05
40 *1712:C1 *733:31 2.61337e-05
41 *1712:C1 *733:48 3.69047e-06
42 *1713:A2 *1715:S 0
43 *1713:A2 *733:16 0
44 *1713:B1 *733:48 1.13406e-05
45 *1718:A2 *1711:A 0
46 *1718:A2 *733:48 1.00073e-05
47 *1718:B1 *1710:C_N 2.16719e-05
48 *1718:B1 *1752:B1 0.000195161
49 *1720:B1 *733:14 0.000207735
50 *1752:A2 *1752:B1 1.97695e-05
51 *1753:A2 *1753:A1 4.81734e-05
52 *1753:B1 *1752:B1 5.33005e-05
53 *1755:A1 *1753:A1 9.56579e-05
54 *1755:A1 *733:14 4.43299e-05
55 *1755:B2 *1752:B1 7.66995e-05
56 *1756:A *1752:B1 1.56e-05
57 *1757:B1 *1752:B1 0.000120456
58 *1788:CLK *733:16 1.40942e-05
59 *1788:CLK *733:29 1.01487e-05
60 *50:457 *1715:S 0
61 *73:26 *1752:B1 2.861e-05
62 *73:37 *1710:C_N 2.49484e-05
63 *73:37 *1752:B1 4.58096e-05
64 *73:37 *733:48 6.07232e-05
65 *73:46 *733:29 6.70713e-05
66 *73:46 *733:31 2.16719e-05
67 *674:10 *1753:A1 1.3701e-05
68 *690:18 *1709:A 4.88546e-05
69 *690:18 *1710:C_N 8.32171e-05
70 *690:18 *1711:A 0.000356022
71 *690:18 *1752:B1 1.32724e-05
72 *690:18 *733:31 8.15095e-05
73 *690:18 *733:48 5.36473e-05
74 *691:16 *1753:A1 1.21258e-05
75 *726:42 *1709:A 7.69167e-05
76 *732:22 *733:14 0.000186272
77 *732:22 *733:16 0
*RES
1 *1788:Q *733:6 13.8 
2 *733:6 *733:14 9.40533 
3 *733:14 *733:16 3.75002 
4 *733:16 *1754:A 14.5426 
5 *733:16 *733:29 3.44061 
6 *733:29 *733:31 2.27724 
7 *733:31 *1710:C_N 16.0772 
8 *733:31 *733:48 13.7277 
9 *733:48 *1752:B1 28.1813 
10 *733:48 *733:69 4.5 
11 *733:69 *1709:A 13.1119 
12 *733:69 *1716:A 9.3 
13 *733:29 *1711:A 29.5327 
14 *733:14 *733:104 0.383665 
15 *733:104 *1708:B 13.8 
16 *733:104 *1715:S 17.8099 
17 *733:6 *1753:A1 17.4139 
*END

*D_NET *734 0.00660274
*CONN
*I *1719:A1 I *D sky130_fd_sc_hd__o21ai_0
*I *1694:A I *D sky130_fd_sc_hd__clkinv_1
*I *1709:B I *D sky130_fd_sc_hd__nand2_1
*I *1708:C I *D sky130_fd_sc_hd__nor3_1
*I *1754:B I *D sky130_fd_sc_hd__xnor2_1
*I *1712:A1 I *D sky130_fd_sc_hd__a211oi_1
*I *1718:A1 I *D sky130_fd_sc_hd__a21oi_1
*I *1710:B I *D sky130_fd_sc_hd__nor3b_1
*I *1789:Q O *D sky130_fd_sc_hd__dfrtp_1
*CAP
1 *1719:A1 0.000171567
2 *1694:A 0.000200389
3 *1709:B 0.000193115
4 *1708:C 0.000109531
5 *1754:B 0
6 *1712:A1 0
7 *1718:A1 4.45783e-05
8 *1710:B 6.59322e-05
9 *1789:Q 0
10 *734:22 0.000131311
11 *734:20 0.00022786
12 *734:14 0.000245999
13 *734:12 0.000245515
14 *734:10 0.000371138
15 *734:6 0.000552652
16 *734:4 0.000442853
17 *1694:A *1713:A1 0.000116288
18 *1694:A *758:8 4.00276e-06
19 *1708:C *1708:A 7.32272e-05
20 *1710:B *1710:A 1.92789e-05
21 *1718:A1 *1710:A 0
22 *734:6 *752:55 3.55552e-05
23 *734:20 *1699:A1 0
24 *734:20 *1711:B 0
25 *734:20 *757:8 6.05161e-06
26 *1112:A *1719:A1 3.34295e-05
27 *1711:A *734:20 1.13406e-05
28 *1712:B1 *1718:A1 1.92789e-05
29 *1712:B1 *734:20 5.80706e-06
30 *1712:B1 *734:22 1.31516e-05
31 *1712:C1 *734:20 0.00017267
32 *1713:A2 *1694:A 4.23086e-05
33 *1713:A2 *1709:B 0.000199324
34 *1713:B1 *1694:A 0.000251104
35 *1713:B1 *734:12 0
36 *1713:B1 *734:20 1.58213e-06
37 *1713:C1 *1694:A 9.37994e-06
38 *1718:A2 *1710:B 0.000110916
39 *1718:A2 *1718:A1 1.00073e-05
40 *1718:A2 *734:22 2.39876e-05
41 *1718:B1 *1710:B 0.000126439
42 *1718:B1 *1718:A1 0.000139907
43 *1718:B1 *734:22 3.17148e-05
44 *1752:A1 *1719:A1 5.80706e-06
45 *1752:A2 *1719:A1 5.52238e-05
46 *1752:B1 *1709:B 5.80706e-06
47 *1754:A *734:20 5.52238e-05
48 *1755:B1 *734:10 2.90075e-05
49 *1756:A *1709:B 0
50 *1757:B1 *1719:A1 5.33005e-05
51 *1788:CLK *1708:C 0.000131297
52 *1788:CLK *1709:B 0
53 *1788:D *734:10 0
54 *1788:D *734:12 0
55 *1789:CLK *734:12 9.92409e-05
56 *1789:D *734:6 0.000120114
57 *1789:D *734:10 7.43578e-06
58 *1789:RESET_B *734:6 9.1677e-05
59 *1790:D *734:6 0
60 *50:443 *734:6 1.65169e-05
61 *50:457 *1694:A 0.000396285
62 *50:457 *734:6 0.00015684
63 *50:457 *734:10 1.32552e-05
64 *67:12 *1694:A 0
65 *73:37 *1709:B 0
66 *73:46 *1709:B 0
67 *690:18 *734:20 0
68 *691:16 *1719:A1 3.87453e-05
69 *714:14 *1719:A1 0.000166168
70 *720:10 *1719:A1 3.87848e-05
71 *722:12 *1694:A 0
72 *726:8 *1709:B 0.00019211
73 *731:16 *1719:A1 0.000144519
74 *731:18 *1719:A1 0.000175519
75 *733:16 *1708:C 7.40153e-05
76 *733:31 *734:20 5.90443e-06
77 *733:48 *1709:B 7.0758e-05
*RES
1 *1789:Q *734:4 9.3 
2 *734:4 *734:6 9.28222 
3 *734:6 *734:10 2.47526 
4 *734:10 *734:12 3.01982 
5 *734:12 *734:14 1.01486 
6 *734:14 *734:20 10.4901 
7 *734:20 *734:22 1.01486 
8 *734:22 *1710:B 16.8198 
9 *734:22 *1718:A1 15.6812 
10 *734:20 *1712:A1 13.8 
11 *734:14 *1754:B 9.3 
12 *734:12 *1708:C 23.0525 
13 *734:10 *1709:B 25.6268 
14 *734:6 *1694:A 27.7802 
15 *734:4 *1719:A1 26.7901 
*END

*D_NET *735 0.00122715
*CONN
*I *1693:A I *D sky130_fd_sc_hd__clkinv_1
*I *1717:B1 I *D sky130_fd_sc_hd__o21ai_0
*I *1790:Q O *D sky130_fd_sc_hd__dfrtp_1
*CAP
1 *1693:A 0
2 *1717:B1 3.00565e-05
3 *1790:Q 0.000158281
4 *735:12 0.000188338
5 *1717:B1 *1717:A1 0
6 *1706:A *1717:B1 5.71472e-05
7 *1706:A *735:12 0.000131439
8 *1750:B *1717:B1 0
9 *1753:B1 *735:12 5.67771e-05
10 *1755:A1 *735:12 0.000129868
11 *1755:A2 *735:12 5.58875e-06
12 *1755:B2 *735:12 0
13 *73:26 *1717:B1 3.18676e-05
14 *73:26 *735:12 2.44318e-05
15 *720:10 *735:12 0.000413352
*RES
1 *1790:Q *735:12 26.2456 
2 *735:12 *1717:B1 10.6366 
3 *735:12 *1693:A 9.3 
*END

*D_NET *736 0.00369321
*CONN
*I *1739:D I *D sky130_fd_sc_hd__nand4_1
*I *1734:B I *D sky130_fd_sc_hd__and2_0
*I *1732:A I *D sky130_fd_sc_hd__nor2_1
*I *1733:B I *D sky130_fd_sc_hd__nor2_1
*I *1772:Q O *D sky130_fd_sc_hd__dfrtp_1
*CAP
1 *1739:D 2.81666e-05
2 *1734:B 0.000224883
3 *1732:A 0.000332305
4 *1733:B 6.95494e-05
5 *1772:Q 0
6 *736:29 0.000829138
7 *736:21 0.000355165
8 *736:6 0.000124597
9 *1732:A *1738:B1 0
10 *1733:B *744:21 0.000144539
11 *1734:B *1734:A 7.7807e-05
12 *1739:D *1721:B1 0
13 *1739:D *1739:A 8.46829e-05
14 *1739:D *743:8 5.52238e-05
15 *1739:D *745:10 9.33978e-07
16 *736:21 *744:21 8.15843e-05
17 *736:29 *1734:A 0
18 *736:29 *1739:A 0.000157914
19 *736:29 *743:8 1.97695e-05
20 *736:29 *745:10 0.000111806
21 *1732:B *1732:A 0
22 *1735:B *1733:B 0.000291056
23 *1735:B *1734:B 0
24 *1735:B *736:21 7.29667e-05
25 *1735:B *736:29 2.17421e-05
26 *1772:D *1732:A 0.000116017
27 *1773:D *1734:B 9.50965e-05
28 *1774:RESET_B *1732:A 7.40249e-05
29 *1775:D *1734:B 7.77652e-05
30 *1775:D *736:29 0
31 *50:129 *1732:A 1.17968e-05
32 *50:129 *1734:B 5.7616e-05
33 *50:131 *1732:A 0.000148617
34 *72:12 *1732:A 0
35 *72:12 *1734:B 0
36 *72:14 *1732:A 0
37 *72:18 *1732:A 0
38 *704:16 *736:21 0
39 *706:12 *736:21 2.84494e-05
*RES
1 *1772:Q *736:6 13.8 
2 *736:6 *1733:B 18.9238 
3 *736:6 *736:21 7.19803 
4 *736:21 *736:29 13.2624 
5 *736:29 *1732:A 25.3347 
6 *736:29 *1734:B 22.1169 
7 *736:21 *1739:D 10.6119 
*END

*D_NET *737 0.000578754
*CONN
*I *1725:B I *D sky130_fd_sc_hd__nor4_1
*I *1782:Q O *D sky130_fd_sc_hd__dfrtp_1
*CAP
1 *1725:B 0.000196969
2 *1782:Q 0.000196969
3 *1725:B *1723:A 0.000106403
4 *1725:C *1725:B 7.84126e-05
5 *703:8 *1725:B 0
*RES
1 *1782:Q *1725:B 33.8129 
*END

*D_NET *738 0.000432903
*CONN
*I *1724:D I *D sky130_fd_sc_hd__or4_1
*I *1783:Q O *D sky130_fd_sc_hd__dfrtp_1
*CAP
1 *1724:D 0.000174162
2 *1783:Q 0.000174162
3 *1724:D *1724:A 5.48312e-05
4 *1724:D *1724:B 3.69047e-06
5 *1724:D *1724:C 5.80706e-06
6 *50:167 *1724:D 2.02508e-05
*RES
1 *1783:Q *1724:D 32.7485 
*END

*D_NET *739 0.000288802
*CONN
*I *1724:C I *D sky130_fd_sc_hd__or4_1
*I *1784:Q O *D sky130_fd_sc_hd__dfrtp_1
*CAP
1 *1724:C 0.000136372
2 *1784:Q 0.000136372
3 *1724:C *1724:A 1.02504e-05
4 *1724:D *1724:C 5.80706e-06
5 *72:50 *1724:C 0
*RES
1 *1784:Q *1724:C 31.1891 
*END

*D_NET *740 0.000347783
*CONN
*I *1725:A I *D sky130_fd_sc_hd__nor4_1
*I *1785:Q O *D sky130_fd_sc_hd__dfrtp_1
*CAP
1 *1725:A 0.000143094
2 *1785:Q 0.000143094
3 *1725:A *1723:B 1.92905e-05
4 *1725:C *1725:A 2.65105e-05
5 *1736:B *1725:A 0
6 *1777:RESET_B *1725:A 1.57931e-05
7 *1785:RESET_B *1725:A 0
8 *696:14 *1725:A 0
9 *703:8 *1725:A 0
*RES
1 *1785:Q *1725:A 31.7584 
*END

*D_NET *741 6.60344e-05
*CONN
*I *1724:B I *D sky130_fd_sc_hd__or4_1
*I *1786:Q O *D sky130_fd_sc_hd__dfrtp_1
*CAP
1 *1724:B 3.1172e-05
2 *1786:Q 3.1172e-05
3 *1724:D *1724:B 3.69047e-06
4 *50:167 *1724:B 0
*RES
1 *1786:Q *1724:B 19.3426 
*END

*D_NET *742 0.000724638
*CONN
*I *1724:A I *D sky130_fd_sc_hd__or4_1
*I *1787:Q O *D sky130_fd_sc_hd__dfrtp_1
*CAP
1 *1724:A 0.000329778
2 *1787:Q 0.000329778
3 *1724:C *1724:A 1.02504e-05
4 *1724:D *1724:A 5.48312e-05
5 *50:167 *1724:A 0
6 *72:28 *1724:A 0
7 *72:39 *1724:A 0
*RES
1 *1787:Q *1724:A 36.808 
*END

*D_NET *743 0.00338144
*CONN
*I *1739:C I *D sky130_fd_sc_hd__nand4_1
*I *1721:A2 I *D sky130_fd_sc_hd__a21o_1
*I *1734:A I *D sky130_fd_sc_hd__and2_0
*I *1733:A I *D sky130_fd_sc_hd__nor2_1
*I *1773:Q O *D sky130_fd_sc_hd__dfrtp_1
*CAP
1 *1739:C 0
2 *1721:A2 9.47371e-05
3 *1734:A 0.000518738
4 *1733:A 0.000181116
5 *1773:Q 5.1272e-05
6 *743:23 0.000745683
7 *743:10 0.000313325
8 *743:8 5.1272e-05
9 *1721:A2 *1721:A1 3.30352e-05
10 *1721:A2 *1721:B1 1.24368e-05
11 *1721:A2 *1739:A 0
12 *1733:A *744:21 0.000424443
13 *1734:A *1721:B1 6.71657e-05
14 *1734:A *745:10 3.38235e-05
15 *743:8 *1721:B1 0
16 *743:8 *1739:A 1.98839e-05
17 *743:8 *1739:B 5.33005e-05
18 *743:23 *1736:A 0.000103981
19 *743:23 *744:21 2.24646e-05
20 *743:23 *744:32 8.15095e-05
21 *1734:B *1734:A 7.7807e-05
22 *1736:B *1734:A 1.28226e-05
23 *1739:D *743:8 5.52238e-05
24 *1773:D *1734:A 0
25 *1775:D *1734:A 0.000185919
26 *1777:RESET_B *1734:A 0
27 *72:8 *1734:A 0.000106467
28 *704:16 *1734:A 0.000115244
29 *736:29 *1734:A 0
30 *736:29 *743:8 1.97695e-05
*RES
1 *1773:Q *743:8 11.2059 
2 *743:8 *743:10 4.5 
3 *743:10 *1733:A 21.1268 
4 *743:10 *743:23 8.03962 
5 *743:23 *1734:A 26.7753 
6 *743:23 *1721:A2 12.3693 
7 *743:8 *1739:C 9.3 
*END

*D_NET *744 0.0029819
*CONN
*I *1736:A I *D sky130_fd_sc_hd__xnor2_1
*I *1721:A1 I *D sky130_fd_sc_hd__a21o_1
*I *1739:B I *D sky130_fd_sc_hd__nand4_1
*I *1738:A1 I *D sky130_fd_sc_hd__a21oi_1
*I *1774:Q O *D sky130_fd_sc_hd__dfrtp_1
*CAP
1 *1736:A 0.000204067
2 *1721:A1 4.22768e-05
3 *1739:B 2.65998e-05
4 *1738:A1 0.000351671
5 *1774:Q 2.21436e-05
6 *744:32 0.000283964
7 *744:21 0.000230832
8 *744:8 0.000540427
9 *1721:A1 *1721:B1 2.59355e-05
10 *1721:A1 *1739:A 0
11 *1736:A *1743:A 1.58213e-06
12 *1738:A1 *1738:B1 7.43578e-06
13 *1739:B *1739:A 1.56e-05
14 *1721:A2 *1721:A1 3.30352e-05
15 *1722:A2 *1736:A 0.000155476
16 *1733:A *744:21 0.000424443
17 *1733:B *744:21 0.000144539
18 *1735:B *1738:A1 0
19 *1735:B *744:8 5.71472e-05
20 *1735:B *744:21 1.78447e-05
21 *1738:A2 *1738:A1 1.74352e-05
22 *1740:A *1736:A 0
23 *1741:B *1738:A1 5.19842e-06
24 *1741:B *744:21 0
25 *704:16 *1736:A 3.14048e-05
26 *706:12 *1736:A 0
27 *706:12 *744:21 0
28 *706:12 *744:32 0
29 *736:21 *744:21 8.15843e-05
30 *743:8 *1739:B 5.33005e-05
31 *743:23 *1736:A 0.000103981
32 *743:23 *744:21 2.24646e-05
33 *743:23 *744:32 8.15095e-05
*RES
1 *1774:Q *744:8 15.1119 
2 *744:8 *1738:A1 23.206 
3 *744:8 *744:21 9.00995 
4 *744:21 *1739:B 15.1119 
5 *744:21 *744:32 1.43565 
6 *744:32 *1721:A1 15.6812 
7 *744:32 *1736:A 19.9139 
*END

*D_NET *745 0.00313123
*CONN
*I *1721:B1 I *D sky130_fd_sc_hd__a21o_1
*I *1739:A I *D sky130_fd_sc_hd__nand4_1
*I *1738:B1 I *D sky130_fd_sc_hd__a21oi_1
*I *1775:Q O *D sky130_fd_sc_hd__dfrtp_1
*CAP
1 *1721:B1 9.18514e-05
2 *1739:A 0.00020128
3 *1738:B1 0.00027865
4 *1775:Q 0
5 *745:10 0.000689406
6 *745:4 0.000301328
7 *1721:A1 *1721:B1 2.59355e-05
8 *1721:A1 *1739:A 0
9 *1721:A2 *1721:B1 1.24368e-05
10 *1721:A2 *1739:A 0
11 *1732:A *1738:B1 0
12 *1734:A *1721:B1 6.71657e-05
13 *1734:A *745:10 3.38235e-05
14 *1735:B *1739:A 0.000134549
15 *1738:A1 *1738:B1 7.43578e-06
16 *1738:A2 *1738:B1 9.90367e-05
17 *1739:B *1739:A 1.56e-05
18 *1739:D *1721:B1 0
19 *1739:D *1739:A 8.46829e-05
20 *1739:D *745:10 9.33978e-07
21 *1741:B *1738:B1 0.00029085
22 *1741:B *745:10 8.25644e-05
23 *1774:RESET_B *1738:B1 5.20904e-05
24 *50:129 *745:10 4.11196e-05
25 *50:131 *1738:B1 8.81437e-05
26 *50:131 *745:10 2.00751e-05
27 *706:12 *1739:A 0.000222666
28 *736:29 *1739:A 0.000157914
29 *736:29 *745:10 0.000111806
30 *743:8 *1721:B1 0
31 *743:8 *1739:A 1.98839e-05
*RES
1 *1775:Q *745:4 9.3 
2 *745:4 *745:10 11.9258 
3 *745:10 *1738:B1 25.3842 
4 *745:10 *1739:A 21.9436 
5 *745:4 *1721:B1 12.1961 
*END

*D_NET *746 0.00362513
*CONN
*I *1722:A1 I *D sky130_fd_sc_hd__a21oi_1
*I *1742:A I *D sky130_fd_sc_hd__nand2_1
*I *1745:B I *D sky130_fd_sc_hd__nand3_1
*I *1743:A I *D sky130_fd_sc_hd__xor2_1
*I *1776:Q O *D sky130_fd_sc_hd__dfrtp_1
*CAP
1 *1722:A1 7.29006e-05
2 *1742:A 0.000180949
3 *1745:B 6.10211e-06
4 *1743:A 0.000373167
5 *1776:Q 0
6 *746:19 0.000256527
7 *746:17 0.000245505
8 *746:4 0.000476296
9 *1722:A1 *1722:B1 6.05161e-06
10 *1742:A *1692:A 0.00015688
11 *1722:A2 *1722:A1 1.92905e-05
12 *1722:A2 *746:17 0.000250208
13 *1736:A *1743:A 1.58213e-06
14 *1736:B *1743:A 1.34703e-05
15 *1740:A *1743:A 4.43256e-05
16 *1741:A *1743:A 0.000197901
17 *1741:C *746:17 0
18 *1742:B *746:17 0
19 *1743:B *1743:A 0.000410336
20 *1744:B *1743:A 1.32552e-05
21 *1747:B *1742:A 8.41284e-06
22 *1747:B *1745:B 8.49861e-06
23 *1747:B *746:17 0
24 *1748:B *1742:A 0.00056263
25 *1777:RESET_B *1743:A 3.67142e-05
26 *704:16 *1743:A 0
27 *706:12 *746:17 2.94103e-05
28 *707:14 *746:17 0.000153762
29 *719:8 *1742:A 0.00010096
*RES
1 *1776:Q *746:4 9.3 
2 *746:4 *1743:A 24.7209 
3 *746:4 *746:17 9.5124 
4 *746:17 *746:19 1.31189 
5 *746:19 *1745:B 14.1837 
6 *746:19 *1742:A 24.0847 
7 *746:17 *1722:A1 15.9163 
*END

*D_NET *747 0.000825969
*CONN
*I *1722:B1 I *D sky130_fd_sc_hd__a21oi_1
*I *1745:A I *D sky130_fd_sc_hd__nand3_1
*I *1746:A I *D sky130_fd_sc_hd__xor2_1
*I *1777:Q O *D sky130_fd_sc_hd__dfrtp_1
*CAP
1 *1722:B1 2.62325e-05
2 *1745:A 0
3 *1746:A 0
4 *1777:Q 7.86655e-05
5 *747:19 0.00019756
6 *747:8 0.000249992
7 *1722:A1 *1722:B1 6.05161e-06
8 *1722:A2 *747:19 0
9 *1745:C *747:19 3.99614e-06
10 *1747:B *747:8 1.27295e-05
11 *1747:B *747:19 4.55516e-05
12 *693:14 *1722:B1 1.21258e-05
13 *693:14 *747:8 4.51611e-05
14 *707:14 *1722:B1 6.05161e-06
15 *707:14 *747:19 5.04589e-05
16 *707:18 *747:8 6.05161e-06
17 *707:18 *747:19 8.53409e-05
*RES
1 *1777:Q *747:8 11.7753 
2 *747:8 *1746:A 9.3 
3 *747:8 *747:19 5.91587 
4 *747:19 *1745:A 9.3 
5 *747:19 *1722:B1 10.0426 
*END

*D_NET *748 0.000742884
*CONN
*I *1692:A I *D sky130_fd_sc_hd__clkinv_1
*I *1778:Q O *D sky130_fd_sc_hd__dfrtp_1
*CAP
1 *1692:A 0.000218187
2 *1778:Q 0.000218187
3 *1706:B *1692:A 9.24825e-05
4 *1742:A *1692:A 0.00015688
5 *719:8 *1692:A 5.71472e-05
*RES
1 *1778:Q *1692:A 35.8674 
*END

*D_NET *749 0.000777832
*CONN
*I *1723:C I *D sky130_fd_sc_hd__or3_1
*I *1779:Q O *D sky130_fd_sc_hd__dfrtp_1
*CAP
1 *1723:C 0.000297121
2 *1779:Q 0.000297121
3 *1723:C *1723:A 0.000183591
4 *1725:D *1723:C 0
5 *1785:RESET_B *1723:C 0
6 *50:146 *1723:C 0
*RES
1 *1779:Q *1723:C 36.8327 
*END

*D_NET *750 0.000930964
*CONN
*I *1723:A I *D sky130_fd_sc_hd__or3_1
*I *1780:Q O *D sky130_fd_sc_hd__dfrtp_1
*CAP
1 *1723:A 0.000320485
2 *1780:Q 0.000320485
3 *1723:C *1723:A 0.000183591
4 *1725:B *1723:A 0.000106403
5 *1738:A2 *1723:A 0
6 *1774:D *1723:A 0
7 *703:8 *1723:A 0
*RES
1 *1780:Q *1723:A 38.2931 
*END

*D_NET *751 0.000399221
*CONN
*I *1723:B I *D sky130_fd_sc_hd__or3_1
*I *1781:Q O *D sky130_fd_sc_hd__dfrtp_1
*CAP
1 *1723:B 0.00011905
2 *1781:Q 0.00011905
3 *1725:A *1723:B 1.92905e-05
4 *1725:C *1723:B 0.00014183
5 *1725:D *1723:B 0
6 *1777:RESET_B *1723:B 0
*RES
1 *1781:Q *1723:B 22.1891 
*END

*D_NET *752 0.00619114
*CONN
*I *1705:A2 I *D sky130_fd_sc_hd__o21ai_0
*I *1759:A2 I *D sky130_fd_sc_hd__o311a_1
*I *1695:B I *D sky130_fd_sc_hd__nor2_1
*I *1729:A2 I *D sky130_fd_sc_hd__a31oi_1
*I *1728:A I *D sky130_fd_sc_hd__nand2_1
*I *1714:SLEEP I *D sky130_fd_sc_hd__lpflow_isobufsrc_1
*I *1707:A I *D sky130_fd_sc_hd__lpflow_isobufsrc_1
*I *1751:B1 I *D sky130_fd_sc_hd__a21oi_1
*I *1731:A2 I *D sky130_fd_sc_hd__o21ai_0
*I *1791:Q O *D sky130_fd_sc_hd__dfrtp_1
*CAP
1 *1705:A2 5.60581e-05
2 *1759:A2 0
3 *1695:B 7.8677e-05
4 *1729:A2 0
5 *1728:A 1.11927e-05
6 *1714:SLEEP 0
7 *1707:A 0
8 *1751:B1 8.83352e-05
9 *1731:A2 0.000446015
10 *1791:Q 0
11 *752:91 0.000213543
12 *752:55 0.000254832
13 *752:49 0.000310836
14 *752:43 0.000291447
15 *752:37 0.000407917
16 *752:14 0.00073743
17 *752:10 0.000198951
18 *752:4 0.00010073
19 *1695:B *1730:A 2.44266e-05
20 *1695:B *753:58 1.61074e-05
21 *1695:B *753:69 5.92838e-05
22 *1705:A2 *1705:A1 2.89114e-05
23 *1731:A2 *1731:A1 0.00019601
24 *752:10 *753:40 0.000128868
25 *752:14 *753:40 5.52238e-05
26 *752:14 *753:46 7.32955e-05
27 *752:43 *753:88 0
28 *752:49 *753:73 0
29 *752:49 *753:88 0.000152253
30 *752:55 *1707:SLEEP 0.000142427
31 *752:55 *753:88 4.1074e-05
32 *752:91 *753:69 5.52302e-05
33 *1696:A *1695:B 6.55694e-05
34 *1696:A *752:91 1.92905e-05
35 *1706:B *1705:A2 3.30237e-05
36 *1706:B *1731:A2 0
37 *1729:A3 *752:43 4.80241e-05
38 *1729:A3 *752:49 0
39 *1730:B *1695:B 3.29076e-05
40 *1752:A2 *1731:A2 5.7661e-06
41 *1753:A1 *1751:B1 0.000105206
42 *1753:A2 *1751:B1 8.11299e-05
43 *1753:A2 *752:55 0
44 *1755:A1 *1751:B1 4.60857e-05
45 *1759:B1 *752:14 0
46 *1759:B1 *752:43 1.00073e-05
47 *1759:C1 *1705:A2 0.000139907
48 *1759:C1 *752:14 0.000133363
49 *1760:B *752:37 3.98131e-05
50 *1760:B *752:91 4.06782e-05
51 *1769:CLK *1731:A2 0
52 *1769:D *1731:A2 0
53 *1771:D *752:43 5.33334e-05
54 *1789:RESET_B *752:14 7.48091e-05
55 *1789:RESET_B *752:49 0
56 *1789:RESET_B *752:55 0
57 *1791:D *752:10 4.11196e-05
58 *1792:D *1731:A2 0
59 *1792:D *752:37 0
60 *1792:D *752:43 3.14163e-05
61 *50:107 *752:37 3.38229e-05
62 *50:107 *752:91 7.36267e-05
63 *50:109 *752:37 5.70616e-05
64 *50:111 *1731:A2 8.18029e-05
65 *50:111 *752:10 0
66 *50:111 *752:37 1.97381e-05
67 *50:115 *1731:A2 0.000122047
68 *50:117 *1731:A2 5.83304e-05
69 *50:457 *752:55 3.99614e-06
70 *690:18 *1731:A2 4.1896e-06
71 *691:16 *1751:B1 5.52302e-05
72 *698:50 *1731:A2 0.000219711
73 *699:6 *752:43 2.65133e-05
74 *699:6 *752:49 3.18676e-05
75 *714:14 *1751:B1 0.000152795
76 *733:14 *1751:B1 4.43299e-05
77 *734:6 *752:55 3.55552e-05
*RES
1 *1791:Q *752:4 9.3 
2 *752:4 *752:10 11.2772 
3 *752:10 *752:14 10.9357 
4 *752:14 *1731:A2 29.5674 
5 *752:14 *752:37 5.2228 
6 *752:37 *752:43 9.10398 
7 *752:43 *752:49 4.92577 
8 *752:49 *752:55 5.34656 
9 *752:55 *1751:B1 23.003 
10 *752:55 *1707:A 9.3 
11 *752:49 *1714:SLEEP 9.3 
12 *752:43 *1728:A 9.89406 
13 *752:37 *752:91 8.7822 
14 *752:91 *1729:A2 9.3 
15 *752:91 *1695:B 13.1119 
16 *752:10 *1759:A2 9.3 
17 *752:4 *1705:A2 11.7753 
*END

*D_NET *753 0.00576427
*CONN
*I *1759:A1 I *D sky130_fd_sc_hd__o311a_1
*I *1695:A I *D sky130_fd_sc_hd__nor2_1
*I *1760:A I *D sky130_fd_sc_hd__xnor2_1
*I *1714:A I *D sky130_fd_sc_hd__lpflow_isobufsrc_1
*I *1707:SLEEP I *D sky130_fd_sc_hd__lpflow_isobufsrc_1
*I *1751:A1 I *D sky130_fd_sc_hd__a21oi_1
*I *1729:A1 I *D sky130_fd_sc_hd__a31oi_1
*I *1705:A1 I *D sky130_fd_sc_hd__o21ai_0
*I *1731:A1 I *D sky130_fd_sc_hd__o21ai_0
*I *1792:Q O *D sky130_fd_sc_hd__dfrtp_1
*CAP
1 *1759:A1 0
2 *1695:A 4.14509e-05
3 *1760:A 0
4 *1714:A 0
5 *1707:SLEEP 3.78404e-05
6 *1751:A1 9.89637e-05
7 *1729:A1 0
8 *1705:A1 1.40355e-05
9 *1731:A1 0.000539829
10 *1792:Q 0
11 *753:88 0.000242531
12 *753:73 0.000407976
13 *753:69 0.000226489
14 *753:58 0.00023857
15 *753:46 0.000415601
16 *753:40 0.00043833
17 *753:21 0.000269577
18 *753:4 0.000614787
19 *1695:A *1729:B1 1.69115e-05
20 *753:21 *1705:B1 0
21 *753:40 *1705:B1 0
22 *753:46 *1729:B1 9.11365e-06
23 *753:58 *1729:B1 2.67735e-05
24 *1695:B *753:58 1.61074e-05
25 *1695:B *753:69 5.92838e-05
26 *1696:A *1751:A1 0
27 *1696:A *753:69 6.45381e-05
28 *1696:A *753:73 0
29 *1705:A2 *1705:A1 2.89114e-05
30 *1706:B *1705:A1 5.52302e-05
31 *1706:B *1731:A1 3.72932e-05
32 *1706:B *753:21 3.98131e-05
33 *1720:A2 *1751:A1 4.70078e-05
34 *1729:A3 *753:58 9.7049e-06
35 *1729:A3 *753:69 7.89061e-05
36 *1729:A3 *753:73 0.000142856
37 *1730:B *753:58 0.000166672
38 *1730:B *753:69 0
39 *1731:A2 *1731:A1 0.00019601
40 *1751:A2 *1751:A1 9.58126e-05
41 *1753:A2 *1707:SLEEP 0
42 *1753:A2 *1751:A1 0
43 *1759:A3 *1695:A 0
44 *1759:A3 *753:40 5.71472e-05
45 *1759:A3 *753:46 0
46 *1759:B1 *753:40 0
47 *1759:B1 *753:46 1.57931e-05
48 *1759:C1 *1731:A1 0
49 *1759:C1 *753:40 1.67698e-05
50 *1760:B *753:69 2.89016e-05
51 *1771:D *753:46 0.000128875
52 *1771:D *753:58 5.71146e-05
53 *1771:D *753:69 0
54 *1791:D *1731:A1 0
55 *1791:D *753:40 0
56 *50:107 *753:46 0
57 *50:109 *753:46 0
58 *50:111 *753:21 0
59 *50:111 *753:40 0
60 *690:18 *1731:A1 3.57366e-05
61 *691:16 *1707:SLEEP 0
62 *691:16 *1751:A1 2.41649e-05
63 *697:29 *1731:A1 2.13481e-06
64 *698:50 *1731:A1 8.25843e-06
65 *701:14 *1731:A1 5.33005e-05
66 *714:14 *1731:A1 1.07719e-05
67 *752:10 *753:40 0.000128868
68 *752:14 *753:40 5.52238e-05
69 *752:14 *753:46 7.32955e-05
70 *752:43 *753:88 0
71 *752:49 *753:73 0
72 *752:49 *753:88 0.000152253
73 *752:55 *1707:SLEEP 0.000142427
74 *752:55 *753:88 4.1074e-05
75 *752:91 *753:69 5.52302e-05
*RES
1 *1792:Q *753:4 9.3 
2 *753:4 *1731:A1 24.4981 
3 *753:4 *753:21 6.77724 
4 *753:21 *1705:A1 14.5426 
5 *753:21 *753:40 10.1188 
6 *753:40 *753:46 12.4456 
7 *753:46 *753:58 9.47527 
8 *753:58 *1729:A1 9.3 
9 *753:58 *753:69 5.76736 
10 *753:69 *753:73 3.61388 
11 *753:73 *1751:A1 14.0525 
12 *753:73 *753:88 6.73271 
13 *753:88 *1707:SLEEP 11.1812 
14 *753:88 *1714:A 9.3 
15 *753:69 *1760:A 9.3 
16 *753:46 *1695:A 14.8149 
17 *753:40 *1759:A1 9.3 
*END

*D_NET *754 0.000542208
*CONN
*I *1705:B1 I *D sky130_fd_sc_hd__o21ai_0
*I *1769:Q O *D sky130_fd_sc_hd__dfrtp_1
*CAP
1 *1705:B1 0.000271104
2 *1769:Q 0.000271104
3 *1706:B *1705:B1 0
4 *753:21 *1705:B1 0
5 *753:40 *1705:B1 0
*RES
1 *1769:Q *1705:B1 34.407 
*END

*D_NET *755 0.00241989
*CONN
*I *1697:A1 I *D sky130_fd_sc_hd__mux2_1
*I *1708:A I *D sky130_fd_sc_hd__nor3_1
*I *1761:Q O *D sky130_fd_sc_hd__dfrtp_1
*CAP
1 *1697:A1 5.14283e-05
2 *1708:A 0.000523257
3 *1761:Q 0.000124758
4 *755:8 0.000699443
5 *1708:A *1715:A1 2.97756e-05
6 *1708:A *760:8 7.62127e-05
7 *1099:RESET_B *1697:A1 0.000133012
8 *1099:RESET_B *1708:A 0.000223599
9 *1697:S *755:8 0.00013949
10 *1708:C *1708:A 7.32272e-05
11 *1715:S *1708:A 8.23111e-05
12 *1761:CLK *755:8 0.000216852
13 *1761:D *1697:A1 0
14 *1761:D *1708:A 0
15 *67:12 *1708:A 0
16 *71:10 *1708:A 0
17 *74:20 *755:8 2.89114e-05
18 *732:22 *1708:A 0
19 *733:16 *1708:A 1.0562e-05
20 *733:104 *1708:A 7.05143e-06
*RES
1 *1761:Q *755:8 19.6664 
2 *755:8 *1708:A 30.7308 
3 *755:8 *1697:A1 16.0772 
*END

*D_NET *756 0.00124855
*CONN
*I *1710:A I *D sky130_fd_sc_hd__nor3b_1
*I *1698:A1 I *D sky130_fd_sc_hd__mux2_1
*I *1762:Q O *D sky130_fd_sc_hd__dfrtp_1
*CAP
1 *1710:A 0.000272703
2 *1698:A1 0.000196716
3 *1762:Q 8.18174e-05
4 *756:8 0.000551237
5 *1698:A1 *759:14 0
6 *1710:A *1716:B 0
7 *1698:S *1698:A1 2.59355e-05
8 *1710:B *1710:A 1.92789e-05
9 *1718:A1 *1710:A 0
10 *1718:A2 *1710:A 3.80385e-05
11 *1718:B1 *1710:A 1.92905e-05
12 *1768:CLK *1710:A 2.07937e-05
13 *722:35 *1698:A1 0
14 *722:35 *756:8 2.27416e-05
*RES
1 *1762:Q *756:8 11.899 
2 *756:8 *1698:A1 14.5971 
3 *756:8 *1710:A 17.5921 
*END

*D_NET *757 0.00119969
*CONN
*I *1699:A1 I *D sky130_fd_sc_hd__mux2_1
*I *1711:B I *D sky130_fd_sc_hd__nor2_1
*I *1763:Q O *D sky130_fd_sc_hd__dfrtp_1
*CAP
1 *1699:A1 8.68223e-05
2 *1711:B 5.23426e-05
3 *1763:Q 0.000147798
4 *757:8 0.000286963
5 *1699:A0 *1699:A1 9.60939e-05
6 *1699:S *1699:A1 2.44318e-05
7 *1711:A *1711:B 4.81157e-05
8 *1711:A *757:8 0.000103004
9 *1712:A2 *757:8 4.45768e-06
10 *722:46 *1699:A1 8.40106e-05
11 *722:46 *1711:B 6.43583e-05
12 *732:22 *1699:A1 0.000195239
13 *734:20 *1699:A1 0
14 *734:20 *1711:B 0
15 *734:20 *757:8 6.05161e-06
*RES
1 *1763:Q *757:8 18.5277 
2 *757:8 *1711:B 16.498 
3 *757:8 *1699:A1 19.6416 
*END

*D_NET *758 0.000948538
*CONN
*I *1700:A1 I *D sky130_fd_sc_hd__mux2_1
*I *1713:A1 I *D sky130_fd_sc_hd__o211ai_1
*I *1764:Q O *D sky130_fd_sc_hd__dfrtp_1
*CAP
1 *1700:A1 9.01409e-05
2 *1713:A1 0.000210853
3 *1764:Q 2.82164e-05
4 *758:8 0.00032921
5 *1694:A *1713:A1 0.000116288
6 *1694:A *758:8 4.00276e-06
7 *1697:S *1700:A1 5.80706e-06
8 *1713:A2 *1713:A1 1.58163e-05
9 *1764:RESET_B *1713:A1 0
10 *1788:D *1713:A1 0
11 *50:457 *1713:A1 1.17968e-05
12 *50:467 *1700:A1 4.76219e-05
13 *50:467 *1713:A1 5.99221e-05
14 *67:12 *758:8 1.92789e-05
15 *674:12 *1700:A1 0
16 *691:16 *1713:A1 9.58318e-06
17 *722:12 *1700:A1 0
18 *722:12 *1713:A1 0
*RES
1 *1764:Q *758:8 14.5426 
2 *758:8 *1713:A1 20.4089 
3 *758:8 *1700:A1 16.9931 
*END

*D_NET *759 0.00233978
*CONN
*I *1715:A0 I *D sky130_fd_sc_hd__mux2_1
*I *1701:A1 I *D sky130_fd_sc_hd__mux2_1
*I *1765:Q O *D sky130_fd_sc_hd__dfrtp_1
*CAP
1 *1715:A0 0.000344821
2 *1701:A1 0
3 *1765:Q 0.000297689
4 *759:14 0.00064251
5 *1715:A0 *1702:A1 5.31259e-05
6 *1091:A0 *759:14 0.000119548
7 *1091:A1 *759:14 5.66157e-05
8 *1698:A1 *759:14 0
9 *1699:S *1715:A0 0
10 *1701:A0 *759:14 0.000277524
11 *1763:D *759:14 0.000105689
12 *67:18 *1715:A0 9.54627e-05
13 *67:20 *1715:A0 1.76039e-05
14 *67:20 *759:14 0.000158258
15 *67:24 *759:14 0.000170931
16 *67:70 *1715:A0 0
17 *71:16 *1715:A0 0
18 *71:16 *759:14 0
19 *105:22 *759:14 0
*RES
1 *1765:Q *759:14 27.2902 
2 *759:14 *1701:A1 13.8 
3 *759:14 *1715:A0 23.7753 
*END

*D_NET *760 0.00139821
*CONN
*I *1702:A1 I *D sky130_fd_sc_hd__mux2_1
*I *1715:A1 I *D sky130_fd_sc_hd__mux2_1
*I *1766:Q O *D sky130_fd_sc_hd__dfrtp_1
*CAP
1 *1702:A1 0.00023886
2 *1715:A1 0.000124578
3 *1766:Q 9.77631e-05
4 *760:8 0.000461201
5 *1708:A *1715:A1 2.97756e-05
6 *1708:A *760:8 7.62127e-05
7 *1715:A0 *1702:A1 5.31259e-05
8 *1715:S *1715:A1 3.32631e-05
9 *1764:CLK *1702:A1 2.28598e-05
10 *1764:D *1702:A1 0.000118592
11 *1764:D *760:8 0
12 *50:457 *1715:A1 0
13 *50:457 *760:8 0
14 *50:467 *760:8 0
15 *71:14 *1702:A1 0.000141975
*RES
1 *1766:Q *760:8 17.3396 
2 *760:8 *1715:A1 18.2555 
3 *760:8 *1702:A1 23.6515 
*END

*D_NET *761 0.00223753
*CONN
*I *1716:B I *D sky130_fd_sc_hd__nor2_1
*I *1703:A1 I *D sky130_fd_sc_hd__mux2_1
*I *1767:Q O *D sky130_fd_sc_hd__dfrtp_1
*CAP
1 *1716:B 0.000391703
2 *1703:A1 8.635e-05
3 *1767:Q 3.46698e-05
4 *761:8 0.000512723
5 *1716:B *1704:A1 4.58192e-05
6 *1703:S *1703:A1 0
7 *1703:S *1716:B 0
8 *1704:A0 *1703:A1 0.000206979
9 *1704:A0 *1716:B 0.000146941
10 *1709:A *1716:B 0.000202692
11 *1710:A *1716:B 0
12 *1717:A2 *1716:B 7.8327e-05
13 *1718:A2 *1716:B 5.43599e-05
14 *1718:B1 *1716:B 1.32552e-05
15 *1752:B1 *1716:B 0.000313241
16 *1756:A *1716:B 6.05161e-06
17 *1756:B *1716:B 5.52302e-05
18 *1768:RESET_B *1716:B 0
19 *1777:CLK *761:8 5.33433e-05
20 *690:18 *1716:B 1.4966e-05
21 *722:12 *1716:B 0
22 *722:14 *1716:B 0
23 *722:35 *761:8 1.05947e-05
24 *726:42 *1716:B 1.02821e-05
*RES
1 *1767:Q *761:8 15.1119 
2 *761:8 *1703:A1 17.3396 
3 *761:8 *1716:B 29.0476 
*END

*D_NET *762 0.000437768
*CONN
*I *1717:A1 I *D sky130_fd_sc_hd__o21ai_0
*I *1704:A1 I *D sky130_fd_sc_hd__mux2_1
*I *1768:Q O *D sky130_fd_sc_hd__dfrtp_1
*CAP
1 *1717:A1 5.42675e-05
2 *1704:A1 6.92078e-05
3 *1768:Q 0
4 *762:4 0.000123475
5 *1716:B *1704:A1 4.58192e-05
6 *1717:A2 *1704:A1 0
7 *1717:A2 *1717:A1 5.71472e-05
8 *1717:B1 *1717:A1 0
9 *722:14 *1704:A1 4.58192e-05
10 *722:29 *1704:A1 5.30637e-06
11 *722:29 *1717:A1 0
12 *722:35 *1704:A1 3.67257e-05
*RES
1 *1768:Q *762:4 9.3 
2 *762:4 *1704:A1 21.0475 
3 *762:4 *1717:A1 11.0574 
*END

*D_NET *763 0.000892394
*CONN
*I *1729:B1 I *D sky130_fd_sc_hd__a31oi_1
*I *1771:Q O *D sky130_fd_sc_hd__dfrtp_1
*CAP
1 *1729:B1 0.000262906
2 *1771:Q 0.000262906
3 *1729:B1 *1730:A 0
4 *1695:A *1729:B1 1.69115e-05
5 *1759:B1 *1729:B1 3.075e-05
6 *1771:D *1729:B1 0.000128263
7 *50:107 *1729:B1 0.000154769
8 *753:46 *1729:B1 9.11365e-06
9 *753:58 *1729:B1 2.67735e-05
*RES
1 *1771:Q *1729:B1 36.1644 
*END

*D_NET *765 0.00423232
*CONN
*I *1081:A I *D sky130_fd_sc_hd__clkinv_1
*I *1083:A1 I *D sky130_fd_sc_hd__a22o_1
*I *1082:B I *D sky130_fd_sc_hd__nand2b_1
*I *1696:B I *D sky130_fd_sc_hd__nand2_1
*I *1085:B I *D sky130_fd_sc_hd__nand3b_1
*I *1730:A I *D sky130_fd_sc_hd__nor2_1
*I *1695:Y O *D sky130_fd_sc_hd__nor2_1
*CAP
1 *1081:A 8.41492e-05
2 *1083:A1 8.2031e-05
3 *1082:B 9.08568e-05
4 *1696:B 0.000139674
5 *1085:B 0
6 *1730:A 8.81969e-05
7 *1695:Y 0
8 *765:62 0.000197225
9 *765:36 0.000481911
10 *765:32 0.000331068
11 *765:21 0.000202498
12 *765:4 0.000242052
13 *1082:A_N *1082:B 9.60939e-05
14 *1083:A2 *1083:A1 0.000352212
15 *1083:A2 *765:21 1.31516e-05
16 *1083:B1 *1083:A1 0.000157906
17 *1083:B1 *765:36 0
18 *1083:B2 *1083:A1 5.72318e-05
19 *1084:A1 *1081:A 0.00010096
20 *1084:A2 *1081:A 2.77289e-05
21 *1085:A_N *1082:B 5.7616e-05
22 *1085:A_N *1696:B 4.58096e-05
23 *1085:A_N *765:32 0
24 *1085:A_N *765:36 0.000174734
25 *1085:C *1083:A1 3.29607e-05
26 *1085:C *765:21 1.02504e-05
27 *1095:D *765:36 0
28 *1095:D *765:62 0
29 *1095:SET_B *765:36 1.27739e-05
30 *1096:D *1082:B 9.95752e-05
31 *1096:D *1696:B 3.34366e-05
32 *1096:RESET_B *765:36 0.000179995
33 *1098:CLK *1696:B 6.39355e-05
34 *1098:D *765:21 1.78447e-05
35 *1695:B *1730:A 2.44266e-05
36 *1696:A *1730:A 5.70551e-05
37 *1729:B1 *1730:A 0
38 *1730:B *1730:A 5.75275e-05
39 *1759:A3 *765:21 0
40 *50:105 *765:21 8.99419e-05
41 *50:107 *765:21 3.88892e-05
42 *67:12 *765:36 9.01258e-06
43 *74:14 *1082:B 3.08066e-05
44 *74:14 *765:36 0
45 *74:16 *1082:B 4.43256e-05
46 *115:14 *1081:A 0.000136028
47 *115:14 *1083:A1 2.09826e-05
48 *115:14 *765:62 1.92789e-05
49 *116:10 *765:21 7.0758e-05
50 *127:10 *1081:A 9.02232e-05
51 *127:10 *765:32 3.93247e-05
52 *127:10 *765:36 1.21289e-05
53 *127:10 *765:62 1.77294e-05
54 *127:14 *765:21 0
55 *722:105 *1696:B 0
*RES
1 *1695:Y *765:4 9.3 
2 *765:4 *1730:A 12.9386 
3 *765:4 *765:21 15.0644 
4 *765:21 *1085:B 9.3 
5 *765:21 *765:32 1.9307 
6 *765:32 *765:36 14.3515 
7 *765:36 *1696:B 18.602 
8 *765:36 *1082:B 19.4498 
9 *765:32 *765:62 1.31189 
10 *765:62 *1083:A1 24.3644 
11 *765:62 *1081:A 14.0277 
*END
